%nprocshared=8
%mem=3GB
#p b3lyp empiricaldispersion=gd3bj midix scrf=(pcm,solvent=1,4-dioxane)
opt=modredundant freq=noraman

Title Card Required

0 1
 C                  1.11718900    1.47538200   -1.08967100
 H                  1.58142100    1.27327600   -2.05319300
 C                  1.92769300    1.78562100   -0.02308800
 H                  3.00607600    1.85026200   -0.14563200
 H                  1.53609200    2.21096300    0.89598300
 C                 -0.23904000    1.16093500   -0.94985600
 H                 -0.77109100    0.71313600   -1.78115400
 C                 -0.84349400    1.12750200    0.30718400
 H                 -0.53284100    1.84293400    1.06444900
 N                 -2.19729600    0.74449700    0.48762400
 H                 -2.66134600    1.04265800    1.34795200
 C                 -2.76466100   -0.33817400   -0.14829800
 O                 -2.27382200   -0.97524300   -1.07234900
 O                 -3.99171500   -0.60659600    0.41007000
 C                  1.62810450   -0.26050916    1.21619955
 H                  2.17519750    0.14235384    2.06192655
 C                  0.25454250   -0.45436016    1.26349355
 H                 -0.26143350   -0.30691916    2.21260955
 H                 -0.19344450   -1.18029016    0.59028055
 C                  2.47133050   -0.92083316    0.21401455
 O                  3.69233650   -1.01439616    0.22601055
 O                  1.71028050   -1.45631016   -0.80955045
 H                 -4.32580900   -1.38182600   -0.11473500
 H                  2.39196650   -1.84896216   -1.42007045

B 8 17 F


