%nprocshared=8
%mem=3GB
#p b3lyp empiricaldispersion=gd3bj cc-pVQZ scrf=(pcm,solvent=1,4-dioxane)

Title Card Required

0 1
 C                  1.83493800   -1.35123900    1.38270200
 H                  2.34556000   -0.85196600    2.21036000
 C                  2.59990100   -1.91429100    0.36993400
 H                  3.68870500   -1.92795300    0.44739600
 H                  2.17562300   -2.65923300   -0.30296100
 C                  0.45506500   -1.15593200    1.26354100
 H                 -0.05815000   -0.51646400    1.97962600
 C                 -0.22511200   -1.53238100    0.09892700
 H                  0.10517000   -2.42140700   -0.43649800
 N                 -1.59877400   -1.29907100   -0.10322800
 H                 -2.06732600   -1.85506400   -0.80849400
 C                 -2.27118100   -0.16347500    0.28160600
 O                 -1.83574200    0.71977100    0.99587000
 O                 -3.51566500   -0.18142400   -0.25343100
 C                  2.17602900   -0.45894600   -1.31249700
 H                  2.70669400   -1.09353800   -2.02239600
 C                  0.78550900   -0.32231100   -1.38696200
 H                  0.25901900   -0.82529300   -2.20031100
 H                  0.32570500    0.58654900   -1.00159500
 C                  3.03305400    0.57635000   -0.70707800
 O                  4.23700000    0.67653200   -0.86515700
 O                  2.32147400    1.42315800    0.07993800
 C                  3.09290000    2.41314100    0.76940400
 H                  2.37044700    3.00317300    1.34598100
 H                  3.82347300    1.93751100    1.44162400
 H                  3.63563900    3.05334500    0.05809000
 C                 -4.34717600    0.95307500    0.08227300
 H                 -4.42096200    1.02793600    1.17833400
 H                 -3.85953100    1.87066300   -0.28278800
 C                 -5.69568700    0.72829000   -0.56690100
 H                 -6.36398700    1.57293400   -0.33855500
 H                 -5.59761200    0.64974300   -1.66081100
 H                 -6.16302000   -0.19542800   -0.19186700



