%nprocshared=8
%mem=3GB
#p b3lyp empiricaldispersion=gd3bj 6-31g* scrf=(pcm,solvent=1,4-dioxane)
opt=(ts,calcfc,maxstep=5,noeigentest) freq=noraman

Title Card Required

0 1
 C                  1.08469100    1.43564600   -1.13124800
 H                  1.55586200    1.20795800   -2.08554600
 C                  1.89050200    1.75489100   -0.04867600
 H                  2.96771400    1.84328900   -0.17496200
 H                  1.48787300    2.26745000    0.82193500
 C                 -0.26836100    1.13082500   -0.98940400
 H                 -0.79853900    0.66115900   -1.81000700
 C                 -0.88604300    1.15037300    0.26392700
 H                 -0.57536200    1.88217900    1.00451500
 N                 -2.22964400    0.75289100    0.46398600
 H                 -2.69034400    1.06559500    1.32113800
 C                 -2.78481300   -0.35873300   -0.13445000
 O                 -2.29079700   -1.01611600   -1.04177700
 O                 -4.00561300   -0.62366700    0.43796600
 C                  1.65454200   -0.12219400    1.16189900
 H                  2.22142200    0.29742900    1.98756000
 C                  0.28624700   -0.36769000    1.28418200
 H                 -0.20423900   -0.16158100    2.23426600
 H                 -0.16942800   -1.13708200    0.66791100
 C                  2.48542000   -0.86598900    0.19806600
 O                  3.70633700   -0.94512100    0.20048600
 O                  1.71388700   -1.46745800   -0.77309500
 H                 -4.33500800   -1.41739600   -0.06150100
 H                  2.38392600   -1.90313000   -1.36762800



