%nprocshared=8
%mem=3GB
#p b3lyp empiricaldispersion=gd3bj 6-31g* scrf=(pcm,solvent=1,4-dioxane)
opt=(ts,calcfc,maxstep=5,noeigentest) freq=noraman

Title Card Required

0 1
 C                 -0.56950000    2.28615600   -0.19843800
 H                 -0.57349300    3.23999600    0.32868700
 C                 -1.77783400    1.66410100   -0.46845800
 H                 -2.71675300    2.14783400   -0.20510400
 H                 -1.85535100    0.90628700   -1.24396400
 C                  0.65566000    1.63969300   -0.35990900
 H                  1.55763400    2.09475600    0.03398000
 C                  0.72191100    0.30198400   -0.76357100
 H                 -0.02261100   -0.10512400   -1.44304700
 N                  1.94541700   -0.40603700   -0.84796400
 H                  1.95975100   -1.25302000   -1.42013600
 C                  2.93252800   -0.32107400    0.11141300
 O                  2.98514900    0.49035700    1.02751600
 O                  3.87769600   -1.29155300   -0.11727800
 C                 -1.64704100   -0.11296500    0.94523900
 H                 -1.95839600    0.49777000    1.78470600
 C                 -0.34463500   -0.61190100    0.86047100
 H                  0.39041000   -0.32742500    1.60939000
 H                 -0.18638700   -1.58051100    0.39196400
 C                 -2.75304900   -0.78766400    0.24846700
 O                 -3.93789600   -0.76701200    0.54082500
 O                 -2.29383700   -1.44858700   -0.88604900
 H                  4.54947800   -1.14302700    0.60010500
 H                 -3.11934000   -1.85090200   -1.27221700



