%nprocshared=8
%mem=3GB
#p b3lyp empiricaldispersion=gd3bj cc-pVQZ scrf=(pcm,solvent=1,4-dioxane)

Title Card Required

0 1
 C                 -1.30767200    2.55221000   -0.44751000
 H                 -1.36659500    3.57288500   -0.05834100
 C                 -2.47315300    1.80772300   -0.55232900
 H                 -3.43837300    2.25581700   -0.30816300
 H                 -2.51886400    0.93809000   -1.20770100
 C                 -0.03559400    1.98459700   -0.58428000
 H                  0.84395500    2.57023900   -0.32126700
 C                  0.11930600    0.60677000   -0.78582100
 H                 -0.63145100    0.06303500   -1.35843500
 N                  1.37766400   -0.01955000   -0.87094700
 H                  1.41606900   -0.92854500   -1.31656300
 C                  2.46865800    0.29478100   -0.09618900
 O                  2.56690400    1.25290300    0.64762800
 O                  3.43687900   -0.63084800   -0.29566800
 C                 -2.12777300    0.26349100    1.10711700
 H                 -2.42452800    0.98941400    1.86174400
 C                 -0.79556000   -0.15301300    1.00191300
 H                 -0.05134300    0.27917800    1.67162400
 H                 -0.59883800   -1.16893200    0.66017900
 C                 -3.23607300   -0.57995200    0.63306400
 O                 -4.38996900   -0.51913000    1.01263000
 O                 -2.83148100   -1.44745100   -0.34285500
 C                 -3.86008200   -2.30247200   -0.86039400
 H                 -4.67928000   -1.70938200   -1.29338200
 H                 -3.37815700   -2.91383500   -1.63308300
 H                 -4.27189000   -2.94294700   -0.06606400
 C                  4.65954400   -0.41471700    0.44587500
 H                  4.42576700   -0.40801500    1.52202800
 H                  5.06197700    0.57668400    0.18568900
 C                  5.61109200   -1.53201100    0.07647400
 H                  6.55976400   -1.40836200    0.62138100
 H                  5.18598200   -2.51330400    0.33869800
 H                  5.82732400   -1.52340600   -1.00311300



