%nprocshared=8
%mem=3GB
#p b3lyp empiricaldispersion=gd3bj cc-pVTZ scrf=(pcm,solvent=1,4-dioxane)

Title Card Required

0 1
 C                  2.82635800   -1.19572800    1.06464900
 H                  3.22032900   -0.89422700    2.03948400
 C                  3.69112800   -1.15759300   -0.03749200
 H                  4.76078100   -1.03709400    0.15433600
 H                  3.47241200   -1.77979000   -0.90888300
 C                  1.43580300   -1.33415800    0.96395400
 H                  0.81538000   -1.13874700    1.83509600
 C                  0.81278100   -1.52111800   -0.26080700
 H                  1.36781700   -1.90850800   -1.11106400
 N                 -0.54608200   -1.47533200   -0.49621800
 H                 -0.84346500   -1.58377100   -1.45915200
 C                 -1.48975100   -0.85997400    0.30974800
 O                 -1.32673500   -0.52109700    1.46639300
 O                 -2.63934500   -0.74247300   -0.38051400
 C                  1.87354100    0.57792800   -1.39158400
 H                  1.56685600    0.17674300   -2.35821100
 C                  3.22006600    0.56545800   -1.00263100
 H                  3.96774600    0.40033500   -1.78269400
 H                  3.52165500    1.26109100   -0.21917700
 C                  0.82216300    1.27758600   -0.67767800
 O                 -0.34449000    1.36437500   -1.05316100
 O                  1.25724400    1.83688400    0.48775400
 C                  0.23881800    2.44546500    1.29124900
 H                  0.76658300    2.91210600    2.13274500
 H                 -0.31307500    3.20443200    0.71666900
 H                 -0.46668000    1.68288600    1.65339900
 C                 -3.67413100    0.02554900    0.27550500
 H                 -3.87339100   -0.41418000    1.26461100
 H                 -3.29549600    1.04888700    0.42434800
 C                 -4.89117200   -0.00368700   -0.62285300
 H                 -5.24698300   -1.03533300   -0.77006700
 H                 -5.70420600    0.58184800   -0.16637800
 H                 -4.66070600    0.43076500   -1.60766300



