%nprocshared=8
%mem=3GB
#p b3lyp empiricaldispersion=gd3bj cc-pVDZ scrf=(pcm,solvent=1,4-dioxane)
opt=(ts,calcfc,maxstep=5,noeigentest) freq=noraman temperature=383

Title Card Required

0 1
 C                 -1.05049700    2.78450000   -0.35356600
 H                 -0.96882600    3.81534600   -0.01446200
 C                 -2.32105500    2.20074900   -0.36887400
 H                 -3.18256800    2.85037700   -0.23440400
 H                 -2.51913800    1.34731100   -1.01173800
 C                  0.14983800    2.07007000   -0.48702300
 H                  1.08721200    2.54880300   -0.23635200
 C                  0.13726900    0.71199500   -0.74579100
 H                 -0.72909200    0.26732100   -1.21420800
 N                  1.20353300   -0.16840600   -0.70157600
 H                  0.93561000   -1.15011000   -0.65947200
 C                  2.46454300    0.11438100   -0.21468500
 O                  2.91555400    1.21986000    0.01870700
 O                  3.14440800   -1.04328700   -0.06726400
 C                 -1.35872400    0.04718900    1.24660400
 H                 -0.44372400    0.16161900    1.81327400
 C                 -2.37125500    1.01106400    1.30230800
 H                 -2.28729500    1.78511600    2.05841900
 H                 -3.38847500    0.69656500    1.09035100
 C                 -1.48446500   -1.21164800    0.54640900
 O                 -0.62433500   -2.09199100    0.48979000
 O                 -2.65689700   -1.31615200   -0.14995500
 C                 -2.82124300   -2.52792000   -0.89627400
 H                 -2.79746900   -3.39746100   -0.23418600
 H                 -2.03156700   -2.63461200   -1.64542800
 C                  4.48958200   -0.89765100    0.41358900
 H                  4.49466100   -0.43244400    1.40244800
 H                  4.88769900   -1.91061500    0.46587700
 H                  5.07929400   -0.28759800   -0.27513300
 C                 -4.19617482   -2.41024801   -1.57987899
 H                 -4.37955113   -3.28683382   -2.16543039
 H                 -4.95787322   -2.31332786   -0.83467966
 H                 -4.20640948   -1.54882323   -2.21449903



