%nprocshared=2
%mem=1GB
#p b3lyp/6-31g* opt freq=noraman

Title Card Required

0 1
 O                 -2.74193564   -1.01612902    0.00000000
 H                 -1.78193564   -1.01612902    0.00000000
 H                 -3.06239023   -0.11119319    0.00000000


