%mem=1GB
#p opt freq=noraman pddg

pentane conformation 2

0 1
 C                  2.48790100   -0.32857900   -0.00001000
 H                  2.52708500   -0.97980800    0.88142800
 H                  3.39978000    0.27729100   -0.00004100
 H                  2.52705100   -0.97984600   -0.88142200
 C                  1.24631000    0.53986500   -0.00000400
 H                  1.24572500    1.21106500    0.88402400
 H                  1.24569900    1.21103600   -0.88405300
 C                  0.00000000   -0.33329100    0.00002700
 H                  0.00000100   -1.00756200    0.88375200
 H                 -0.00000100   -1.00759500   -0.88366900
 C                 -1.24631000    0.53986500    0.00000800
 H                 -1.29838365    1.13588393    0.93492182
 H                 -2.15874601   -0.09217495   -0.00196014
 C                 -1.23813933    1.45525748   -1.20735816
 H                 -1.21826361    0.88826850   -2.14581294
 H                 -2.12630275    2.09497771   -1.23028277
 H                 -0.36045265    2.11268773   -1.21168338


