%mem=1GB
#p pddg opt freq=noraman

pentane conformation 1

0 1
 C                 -2.88903966    0.76606259   -0.11351068
 H                 -2.53238523   -0.24274741   -0.11351068
 H                 -2.53236682    1.27046078   -0.98716219
 H                 -3.95903966    0.76607578   -0.11351068
 C                 -2.37569744    1.49201887    1.14389428
 H                 -1.30569744    1.49198877    1.14390371
 H                 -2.73233626    2.50083438    1.14388473
 C                 -2.88906221    0.76607801    2.40129895
 H                 -2.53242634   -0.24273855    2.40130635
 H                 -3.95906221    0.76611064    2.40129127
 C                 -2.37571583    1.49203212    3.65870347
 H                 -2.73076928    2.50140623    3.65772710
 H                 -1.30571764    1.49032236    3.65968045
 C                 -2.89135547    0.76770263    4.91610657
 H                 -2.53670050   -0.24181177    4.91683768
 H                 -2.53428182    1.27181687    5.78975824
 H                 -3.96135310    0.76983511    4.91537361


