%chk=g09.chk
%nprocshared=8
%mem=3GB
#p b3lyp/6-31g* empiricaldispersion=gd3bj opt freq=noraman pop=(chelpg,npa)

Title Card Required

0 1
 C                  0.00000000    0.66535700    0.00000000
 H                 -0.92371600    1.23919200    0.00000000
 C                  0.00000000   -0.66535700    0.00000000
 H                 -0.92375400   -1.23914900    0.00000000
 H                  0.92371600   -1.23919200    0.00000000
 C                  1.30817455    1.47793274    0.00000000
 H                  2.25057829    0.97120285    0.00000000
 O                  1.27260687    2.73583000    0.00000000
 B                  2.68805539    4.01530783   -0.05513952
 F                  2.63455694    4.11013232   -1.51107435
 F                  3.54853756    3.02180964    0.58057408
 F                  1.88107168    4.91398153    0.76508171



