%chk=g09.chk
%nprocshared=8
%mem=3GB
#p b3lyp/6-31g* empiricaldispersion=gd3bj opt=(ts,noeigentest,calcfc) freq=noraman pop=(chelpg,npa)

Title Card Required

0 1
 C                  1.44101100    1.09026000   -0.21554600
 H                  1.68619900    1.69320100    0.65346500
 H                  1.16326000    1.63383700   -1.11123500
 C                  1.68975800   -0.26145400   -0.23805400
 H                  1.70825100   -0.77795100   -1.19236700
 H                  2.32188600   -0.69843700    0.52969300
 C                 -0.99649000   -1.07500100   -0.26109000
 H                 -1.29918800   -1.77442800   -1.03781900
 C                  0.09026200   -1.38338400    0.53192300
 H                  0.50461000   -2.38857100    0.50461100
 H                  0.22916800   -0.87133400    1.47709600
 C                 -1.52380600    0.24062300   -0.31895500
 H                 -2.21996500    0.46625500   -1.12570600
 C                 -1.06276100    1.27474100    0.44547300
 H                 -0.51509000    1.11207900    1.36433500
 H                 -1.40697300    2.29064400    0.27541800



