%chk=g09.chk
%nprocshared=8
%mem=3GB
#p b3lyp/6-31g* empiricaldispersion=gd3bj opt freq=noraman pop=(chelpg,npa)

Title Card Required

0 1
 C                 -0.35657687   -1.57686210    0.00000000
 H                  0.17658687   -2.50456702    0.00000000
 H                 -1.42657687   -1.57686210    0.00000000
 C                  0.31869744   -0.40188480    0.00000000
 H                 -0.21446631    0.52582012    0.00000000
 H                  1.38869744   -0.40188480    0.00000000



