%nprocshared=8
%mem=3GB
#p b3lyp cc-pVTZ empiricaldispersion=gd3bj scrf=(pcm,solvent=diethylether)

title

0 1
16      2.39697000      2.58752100     -0.98639400
 8      1.48642300     -1.65756900      1.41557000
 7      2.07591400     -1.86387800     -0.76253400
 7      2.16864800      0.96715100      1.13747100
 1      1.57399900      0.56527200      1.85811100
 7      0.44902900      2.42201700      0.91551500
 1      0.08881700      1.84953600      1.67073800
 6      1.00118100     -2.84594900     -1.04365000
 1      1.23072800     -3.76629700     -0.49457200
 6      1.15559000     -3.09945000     -2.55889300
 1      0.53351400     -2.39623000     -3.12075500
 1      0.83640700     -4.11076000     -2.82157100
 6      2.64241400     -2.83807600     -2.82719800
 1      2.86059000     -2.62509400     -3.87671100
 1      3.24088100     -3.70390300     -2.52288700
 6      2.96157700     -1.64518400     -1.91891800
 1      2.73540700     -0.69135700     -2.41352000
 1      4.00635900     -1.62435800     -1.60791800
 6      2.17805600     -1.29218800      0.45728300
 6      3.07718000     -0.05060100      0.60522100
 1      3.41060800      0.30849700     -0.36730500
 6      1.62905500      1.97747200      0.39119400
 6      4.32533500     -0.25158700      1.51126100
 6      5.14375500      1.04925000      1.47393500
 1      4.55258000      1.89335300      1.84243700
 1      6.03604300      0.95361100      2.10308800
 1      5.46684100      1.28490800      0.45399700
 6      3.93587300     -0.56835800      2.96470300
 1      3.33986700     -1.48121300      3.03321200
 1      4.84192300     -0.69499800      3.56806200
 1      3.35820600      0.25129900      3.40604100
 6      5.17002200     -1.40519000      0.94548000
 1      5.52056700     -1.18461700     -0.06947200
 1      6.05565400     -1.56294700      1.57042600
 1      4.60927300     -2.34694000      0.92176600
 6     -4.52930000     -3.64163100      1.66871100
 6     -3.24162200     -3.95684900      1.23859800
 6     -2.48147900     -3.02494200      0.51448500
 6     -3.04077500     -1.74871700      0.21806500
 6     -5.08340400     -2.39357000      1.38923400
 6     -1.14702000     -3.30330900      0.07712200
 6     -2.27702200     -0.79877400     -0.52182300
 6     -0.94758600     -1.11022500     -0.96052800
 6     -0.38969500     -2.40758400     -0.61941700
 6     -0.25424700     -0.13063300     -1.69207700
 1      0.75552500     -0.31216800     -2.02432900
 6     -0.83086400      1.10193000     -1.99178100
 6     -2.11545000      1.40892600     -1.56344300
 1     -0.72191700     -4.26891100      0.34084200
 1     -5.10460100     -4.37336100      2.22859600
 1     -2.81153600     -4.92908100      1.46420600
 1     -6.08664000     -2.15236500      1.73061400
 1     -0.24837100      1.83807900     -2.53428200
 1     -2.54683400      2.38298900     -1.77314200
 6     -4.35914600     -1.43187400      0.66677600
 6     -2.85278800      0.47511600     -0.82236500
 6     -4.89629900     -0.13465500      0.36553400
 1     -5.89591600      0.10561400      0.71817200
 6     -4.17467200      0.77389400     -0.34547200
 1     -4.58463700      1.75531800     -0.56767800
 6     -0.48870900      3.39701300      0.51338000
 6     -1.75624800      3.29641200      1.11106500
 6     -0.24288300      4.42409300     -0.40529900
 6     -2.76860200      4.18858500      0.77958900
 1     -1.95565200      2.49298300      1.81589200
 6     -1.27126900      5.30888900     -0.73445800
 1      0.73017300      4.51451800     -0.86353000
 6     -2.53535700      5.20041900     -0.15511100
 1     -3.74359500      4.08363400      1.24626400
 1     -1.07054100      6.09664200     -1.45511300
 1     -3.32536700      5.89562600     -0.42232000


