%nprocshared=8
%mem=6GB
#p pddg opt freq=noraman scrf=(pcm,solvent=diethylether)

title

0 1
16     -0.78012000      1.74444800      1.54066600
 8     -1.59125000     -1.06640700     -1.68581300
 7     -1.92249800     -1.79392300      0.41609600
 7     -2.00391300      1.59659900     -0.81782000
 1     -1.98625900      1.65616100     -1.81459800
 7      0.00587800      2.78592100     -0.79390000
 1     -0.24178400      3.18154800     -1.67424200
 6     -0.95531400     -2.92285500      0.31221800
 1     -1.21812500     -3.52464900     -0.60899000
 6     -1.20109500     -3.74033600      1.59300200
 1     -0.27768300     -4.22194500      1.97761300
 1     -1.89077400     -4.58670000      1.38917400
 6     -1.79954200     -2.77209500      2.61500600
 1     -1.03230700     -2.45414600      3.35384000
 1     -2.59981700     -3.24981400      3.21494400
 6     -2.32228800     -1.56684100      1.82961500
 1     -1.90068700     -0.60517000      2.23269500
 1     -3.43218300     -1.46018900      1.87666800
 6     -2.07799900     -0.82710900     -0.57991800
 6     -2.83865600      0.48539700     -0.29232500
 1     -2.98455100      0.66851000      0.82573800
 6     -0.91314000      2.04304800     -0.05824800
 6     -4.26373200      0.49894700     -0.90026800
 6     -4.90008000      1.86892600     -0.65536800
 1     -4.42440800      2.66959200     -1.23589800
 1     -5.95936600      1.86465000     -0.94820300
 1     -4.86155800      2.15682000      0.40368200
 6     -4.31938700      0.20284900     -2.39282300
 1     -3.93704900     -0.79493100     -2.64131900
 1     -5.35848000      0.23377600     -2.75113700
 1     -3.76386200      0.92958900     -2.99881900
 6     -5.10578400     -0.54376400     -0.16143500
 1     -5.17082000     -0.32933300      0.91517600
 1     -6.13495000     -0.56144600     -0.54515300
 1     -4.70796900     -1.56117800     -0.26721800
 6      4.84182800     -2.79971000     -1.83204700
 6      3.53146800     -3.19542500     -1.77294300
 6      2.66875700     -2.63740700     -0.79158500
 6      3.17044200     -1.68622100      0.11132100
 6      4.53063700     -1.28613700      0.02976900
 6      5.34541400     -1.83636200     -0.92446300
 1      0.92554700     -3.76504500     -1.45102500
 1      5.51797200     -3.22592900     -2.58824300
 1      3.13245800     -3.94201000     -2.47943000
 6      1.30528700     -3.02731500     -0.72051200
 6      2.30803500     -1.13591200      1.09525900
 1      4.91268400     -0.53213900      0.73794000
 1      6.40093000     -1.53431700     -0.99694800
 6      0.99871800     -1.53313200      1.16208300
 6      0.48578300     -2.48029600      0.23812200
 1      2.70374500     -0.38448100      1.80100700
 1      0.33947200     -1.10161400      1.93960100
 6      1.19707600      3.34365600     -0.21372200
 6      1.50177500      4.68712300     -0.46961900
 6      2.07323100      2.54087500      0.52418300
 6      2.68591500      5.22157300      0.02584700
 1      0.82786200      5.32723800     -1.06489600
 6      3.25330600      3.09553800      1.01013500
 1      1.83981100      1.47936500      0.74532200
 6      3.56053400      4.43045800      0.76579200
 1      2.93006600      6.27667200     -0.17005200
 1      3.94566500      2.46524600      1.58955600
 1      4.49493400      4.86092000      1.15597700


