%nprocshared=8
%mem=6GB
#p pddg opt freq=noraman scrf=(pcm,solvent=diethylether)

title

0 1
16     -1.51522700      0.61947200      0.98845600
 8      0.82893200     -0.76038700     -2.81232900
 7      1.83267300      0.73551300     -1.46750500
 7     -0.97049300     -1.38514200     -0.67505600
 1     -1.19457500     -1.94865100     -1.46923500
 7     -3.21920300     -0.84011600     -0.48179700
 1     -3.38837300     -1.31430500     -1.34243700
 6      2.30178900      0.70324300      2.04640800
 1      1.22101200      0.74960500      2.28490000
 6      3.19911100      0.24167200      3.00473400
 1      2.82910600     -0.07098400      3.99269100
 6      4.55908400      0.17495200      2.71681500
 6      5.02439900      0.57951800      1.46912200
 1      6.09988500      0.53397300      1.24166900
 6      4.13319900      1.04436800      0.50648300
 1      4.51011800      1.37518000     -0.47672100
 6      2.76848900      1.09703800      0.79023100
 6      1.78534200      1.59139000     -0.23979500
 1      0.72963800      1.59656300      0.20222400
 6      2.15483300      3.01075200     -0.70923400
 1      2.85475600      3.52370300     -0.01620300
 1      1.25498900      3.66156700     -0.72902500
 6      2.75988400      2.86721900     -2.10363400
 1      3.87064900      2.87417000     -2.06559400
 1      2.49359300      3.71991000     -2.76034300
 6      2.23076300      1.54497300     -2.65514400
 1      2.99517300      0.99213600     -3.24490800
 1      1.38058300      1.71149600     -3.35911900
 6      1.03697700     -0.40550200     -1.65049000
 6      0.48403400     -1.19360200     -0.44729500
 1      0.64585200     -0.61941100      0.52928400
 6     -1.90955200     -0.53557800     -0.10161600
 6      1.20009600     -2.55732100     -0.24693300
 6      0.72744900     -3.16851500      1.07565200
 1     -0.33258300     -3.45066200      1.05768000
 1      1.28853000     -4.08519900      1.30476800
 1      0.87393500     -2.48682000      1.92459200
 6      0.95498300     -3.57541500     -1.35448500
 1      1.24252300     -3.20307600     -2.34495300
 1      1.55300900     -4.48121400     -1.17759300
 1     -0.08756800     -3.91425900     -1.41377900
 6      2.70398800     -2.30923600     -0.14024700
 1      2.94675500     -1.54965300      0.62018600
 1      3.23578500     -3.22932100      0.13851900
 1      3.14119600     -1.97463400     -1.08988700
 1      5.26527300     -0.19370700      3.47553300
 6     -4.35979700     -0.10214400     -0.01005300
 6     -5.31390100      0.32102900     -0.94675400
 6     -4.55747500      0.12264500      1.35600400
 6     -6.45989800      0.97240800     -0.50621700
 1     -5.18087800      0.14112900     -2.02792500
 6     -5.71128000      0.77851000      1.77606600
 1     -3.80310600     -0.18425100      2.10365600
 6     -6.66022200      1.20354400      0.85210700
 1     -7.21051500      1.30745500     -1.23806300
 1     -5.86883800      0.96069000      2.85003500
 1     -7.56835700      1.72262600      1.19354500


