%nprocshared=8
%mem=3GB
#p b3lyp cc-pVTZ empiricaldispersion=gd3bj scrf=(pcm,solvent=diethylether)

title

0 1
16      0.84768600     -2.42623000      1.61912000
 8      1.56556100      0.81958300     -1.57463100
 7      2.11524900      1.42849500      0.54312200
 7      1.72897100     -1.75497200     -0.83533200
 1      1.45646100     -1.47412900     -1.77428000
 7     -0.45672700     -2.38389200     -0.75281700
 1     -0.48881900     -1.94539800     -1.66635600
 6      1.27402000      2.66286700      0.47808300
 6      1.52823300      3.29695000      1.87333100
 1      0.66584400      3.88057800      2.20341500
 1      2.38844000      3.97319100      1.80332900
 6      1.86256900      2.12208500      2.79328300
 1      0.95001800      1.62044500      3.12816200
 1      2.42669100      2.42232200      3.68007800
 6      2.67405000      1.18998600      1.88852600
 1      2.56574300      0.14405400      2.18038800
 1      3.73898200      1.45005900      1.90369000
 6      2.12228800      0.56450600     -0.49788900
 6      2.74626300     -0.83386600     -0.32010300
 1      2.88028600     -1.08236600      0.72881700
 6      0.69202800     -2.18017700     -0.04616400
 6      4.11514100     -1.01555500     -1.03139900
 6      4.64453700     -2.41651500     -0.68441600
 1      3.94544200     -3.19047900     -1.01584700
 1      5.60969200     -2.59103500     -1.17340400
 1      4.78557000     -2.52926200      0.39680400
 6      4.00129500     -0.87228700     -2.55860000
 1      3.58238700      0.09623400     -2.84201000
 1      4.99385300     -0.97022300     -3.01230000
 1      3.36960100     -1.65840000     -2.98801700
 6      5.08398800      0.04953200     -0.48944200
 1      5.19575000     -0.03088000      0.59799400
 1      6.07518700     -0.08154400     -0.93646000
 1      4.74275500      1.06395500     -0.72461200
 6     -4.73625800      3.13248500     -1.24237500
 6     -3.41723300      3.51384600     -1.13458200
 6     -2.47926600      2.70167600     -0.44255800
 6     -2.93148400      1.47751000      0.14455200
 6     -4.29749400      1.11121700      0.01897500
 6     -5.18146100      1.91938700     -0.66071400
 1     -0.79500300      3.99387000     -0.78880500
 1     -5.44257000      3.76222700     -1.77593400
 1     -3.07411300      4.44372300     -1.58152500
 6     -1.10972700      3.06306300     -0.32787100
 6     -1.98368800      0.66919000      0.82326800
 1     -4.62869900      0.17809100      0.46639100
 1     -6.22476700      1.63099100     -0.75296100
 6     -0.66558700      1.04576500      0.90654300
 6     -0.19919000      2.25879700      0.32519300
 1     -2.30649600     -0.26926300      1.26401400
 1      0.02986200      0.37919700      1.40163800
 6     -1.71733000     -2.85350500     -0.30841000
 6     -2.85516100     -2.20527700     -0.80384900
 6     -1.85516000     -3.95706600      0.53969300
 6     -4.12541200     -2.64938200     -0.44171100
 1     -2.74200300     -1.34096900     -1.45181600
 6     -3.13058800     -4.38381300      0.90713800
 1     -0.97510500     -4.46933200      0.90463200
 6     -4.26898000     -3.73621300      0.42237000
 1     -4.99981200     -2.13661500     -0.83124000
 1     -3.23167900     -5.23792500      1.57031800
 1     -5.25795800     -4.07858200      0.71165500
 6      1.75882800      3.61233700     -0.62473500
 1      1.30512800      4.60074000     -0.50032300
 1      2.84356800      3.73163300     -0.54100500
 1      1.52051900      3.22544100     -1.61493500


