%nprocshared=8
%mem=6GB
#p pddg opt freq=noraman scrf=(pcm,solvent=diethylether)

title

0 1
16      3.86063100      0.60738500      1.10810900
 8     -0.62065300      0.99298500     -1.22509800
 7     -0.76285200      1.45406500      0.98354500
 7      2.14747700      0.72492700     -0.92458500
 1      1.90516800      0.55922100     -1.87960300
 7      3.76648800     -0.92858000     -1.08895900
 1      3.56799300     -0.99170600     -2.06413800
 6     -2.26020500      1.61186700      1.03300300
 6     -2.60702800      1.79181400      2.53262000
 1     -3.12034400      0.90649200      2.96954000
 1     -3.34366000      2.61212800      2.68702500
 6     -1.29291400      2.08199400      3.26044000
 1     -1.10666500      1.33542200      4.06269800
 1     -1.32062000      3.05832200      3.78684000
 6     -0.17693700      2.05199800      2.21413200
 1      0.68956200      1.43667400      2.55275400
 1      0.22353900      3.07800100      2.02174000
 6     -0.05060600      1.44420100     -0.23639600
 6      1.43555400      1.86259000     -0.29149400
 1      1.87571600      2.04555800      0.74907500
 6      3.26560400      0.14087700     -0.34018800
 6      1.63516500      3.19331200     -1.06736300
 6      3.12775900      3.53052800     -1.09481700
 1      3.71011800      2.83740400     -1.71492600
 1      3.29547300      4.53337900     -1.51125500
 1      3.57041800      3.51786900     -0.08824400
 6      1.12028600      3.17817800     -2.50114400
 1      0.03432900      3.03081000     -2.56071900
 1      1.32576600      4.14099700     -2.99141800
 1      1.59375900      2.41101600     -3.12623600
 6      0.91953900      4.31197200     -0.30925400
 1      1.33594900      4.45321200      0.69826600
 1      1.03204000      5.27319200     -0.82966700
 1     -0.16145500      4.13022000     -0.20703500
 6     -6.19476900     -1.31937800     -2.75879300
 6     -5.47125200     -0.27837000     -2.22190300
 6     -4.58275000     -0.51557500     -1.14848900
 6     -4.43611200     -1.80644600     -0.63507100
 6     -6.05238300     -2.61926300     -2.24168700
 6     -3.83606100      0.57200000     -0.58936500
 6     -3.51107700     -2.01678200      0.45224600
 6     -2.78495900     -0.93621100      0.99384500
 6     -2.97518600      0.40061600      0.45459900
 6     -1.88530400     -1.22203200      2.04820100
 1     -1.27594900     -0.44030900      2.53016000
 6     -1.72249900     -2.50150200      2.53187600
 6     -2.45522700     -3.56622400      1.98916200
 1     -4.00673300      1.54573400     -1.08432800
 1     -6.88726200     -1.14124500     -3.59506200
 1     -5.58106400      0.74097300     -2.62822400
 1     -6.63613300     -3.44340800     -2.67837200
 1     -1.01193800     -2.69417300      3.35014300
 1     -2.32107300     -4.58496600      2.38196600
 6     -5.18790100     -2.86183100     -1.19788600
 6     -3.33769100     -3.32252000      0.96311500
 6      4.92053000     -1.69080200     -0.69855200
 6      5.89727500     -1.96169500     -1.66824500
 6      5.03417400     -2.22236700      0.59000500
 6      6.98461700     -2.76124500     -1.33697600
 1      5.81759300     -1.56381600     -2.69492900
 6      6.13199700     -3.01944700      0.90176700
 1      4.28343000     -1.99815500      1.37062200
 6      7.10520800     -3.28977700     -0.05449300
 1      7.75331200     -2.97546800     -2.09484500
 1      6.22595600     -3.43700700      1.91575700
 1      7.96975100     -3.92033300      0.20155900
 1     -5.07440700     -3.88827700     -0.79434300
 1     -3.91858600     -4.16229900      0.52955700
 6     -2.61772900      2.94466300      0.34255800
 1     -2.13763000      3.79718300      0.84995800
 1     -2.30855100      2.99545700     -0.71209500
 1     -3.69517600      3.15612100      0.38609500


