%nprocshared=8
%mem=20GB
#p b3lyp 6-31g* empiricaldispersion=gd3bj opt freq=noraman scrf=(pcm,solvent=diethylether)

title

0 1
16     -1.23372100      1.94239400      1.72722100
 8     -1.62258100     -0.99984400     -1.64836800
 7     -1.99156700     -1.66849900      0.48975300
 7     -2.06004700      1.53782200     -0.81038700
 1     -1.69682300      1.22076700     -1.72412700
 7      0.04077800      2.41218400     -0.63303600
 1     -0.00376600      2.29095300     -1.65175700
 6     -0.97883800     -2.73632100      0.33665600
 1     -1.20719900     -3.33059200     -0.55353700
 6     -1.16786100     -3.55128400      1.64590800
 1     -0.26008100     -4.10085000      1.91488300
 1     -1.99248300     -4.26521900      1.51424400
 6     -1.55308300     -2.47160500      2.68601700
 1     -0.65360600     -1.94873600      3.03402800
 1     -2.07261000     -2.88884900      3.55512500
 6     -2.45314300     -1.49210000      1.89010300
 1     -2.30373300     -0.45490100      2.20927500
 1     -3.51475100     -1.75977900      1.97656200
 6     -2.17034500     -0.81389900     -0.54309000
 6     -2.97176400      0.48232700     -0.32059100
 1     -3.14048900      0.68314700      0.73598600
 6     -1.05673700      1.96795200      0.04400200
 6     -4.33239600      0.51385200     -1.06226100
 6     -5.04548000      1.82756800     -0.68303700
 1     -4.41392000      2.68631000     -0.94795800
 1     -6.00268000      1.90903800     -1.21837200
 1     -5.24540800      1.86231400      0.39839100
 6     -4.15210200      0.44183200     -2.59236400
 1     -3.55099200     -0.43187400     -2.86684300
 1     -5.13686200      0.38105100     -3.07795100
 1     -3.64671800      1.34549500     -2.96366100
 6     -5.16332100     -0.69347500     -0.57693800
 1     -5.28753900     -0.66646400      0.51607900
 1     -6.16080900     -0.67248300     -1.03829300
 1     -4.67680000     -1.64141000     -0.84924600
 6      5.01296500     -2.56022900     -1.37364700
 6      3.74085600     -3.07554300     -1.27188400
 6      2.72483400     -2.37079900     -0.57377400
 6      3.04811000     -1.11356200      0.02588500
 6      4.36718200     -0.60587600     -0.09764400
 6      5.32976000     -1.31160000     -0.78219900
 1      1.15734900     -3.81749500     -0.92986700
 1      5.78298400     -3.10908000     -1.91128500
 1      3.49331800     -4.03294300     -1.72814700
 6      1.39934700     -2.86320800     -0.46050300
 6      2.02925500     -0.40861600      0.71284400
 1      4.59372800      0.35858600      0.35237200
 1      6.33864800     -0.91555900     -0.87416700
 6      0.75252800     -0.90969000      0.79620500
 6      0.42302200     -2.15719700      0.20593500
 1      2.26721500      0.55155800      1.16365400
 1     -0.00828000     -0.31399600      1.29047100
 6      1.33814400      2.75309500     -0.18140200
 6      1.63220800      3.17951300      1.11977700
 6      2.37354400      2.63814800     -1.12277700
 6      2.95344700      3.45820500      1.46973000
 1      0.82495300      3.24619800      1.83402300
 6      3.68520000      2.92563100     -0.76434500
 1      2.14723500      2.29609800     -2.13060700
 6      3.98566400      3.33270600      0.53892900
 1      3.17194600      3.78035800      2.48505100
 1      4.47657200      2.81928600     -1.50185100
 1      5.01165700      3.55400400      0.82140000


