%nprocshared=8
%mem=6GB
#p pddg opt freq=noraman scrf=(pcm,solvent=diethylether)

title

0 1
16     -2.33045700      0.65413800     -0.81611900
 8     -0.49431800     -2.97945800      1.62055500
 7      0.59639600     -2.24474400     -0.20248100
 7     -2.05260300     -0.57260600      1.52842500
 1     -2.39443000     -1.14322300      2.27436500
 7     -4.24121600     -0.35906000      0.76924100
 1     -4.54118800     -0.61391500      1.68546600
 6      0.77236200     -1.25545600     -1.30870700
 1     -0.23613700     -0.73624900     -1.47651000
 6      1.11113300     -2.05718800     -2.57668500
 1      2.13874300     -1.84917700     -2.95107300
 1      0.45418900     -1.75449900     -3.41942200
 6      0.94299600     -3.53702700     -2.23748600
 1      1.85239100     -4.11593800     -2.50637600
 1      0.12921100     -4.00040100     -2.83338500
 6      0.66110100     -3.63706600     -0.73729800
 1      1.46433000     -4.18690200     -0.19474100
 1     -0.26919500     -4.22560000     -0.54864100
 6     -0.17037100     -1.99699600      0.95213700
 6     -0.57600600     -0.57065700      1.37229300
 1     -0.27985700      0.19529800      0.57726800
 6     -2.88958300     -0.10896200      0.52021900
 6      0.12391000     -0.09602200      2.67469500
 6     -0.19765700      1.38641800      2.89059500
 1     -1.25828800      1.56385300      3.10719100
 1      0.36516200      1.78692200      3.74530100
 1      0.06959200      2.00106000      2.01995100
 6     -0.27663800     -0.85401900      3.93497800
 1     -0.08596200     -1.93130300      3.86397900
 1      0.30631600     -0.49370200      4.79528900
 1     -1.33004400     -0.71787300      4.21174900
 6      1.63462300     -0.22570600      2.48976400
 1      1.98802100      0.29676300      1.58597000
 1      2.17420200      0.20669700      3.34358900
 1      1.95924800     -1.27132400      2.41362400
 6      2.72933900      4.53622700     -0.56992000
 6      1.86974600      3.49856300     -0.85278900
 6      2.33328400      2.16543200     -0.79191400
 6      3.66229000      1.89740600     -0.44879000
 6      4.06528800      4.27167800     -0.21859000
 6      1.43244400      1.08794700     -1.06694300
 6      4.11032600      0.52578500     -0.41532900
 6      3.21905600     -0.52301800     -0.71956800
 6      1.83727500     -0.21548800     -1.01721900
 6      3.72566700     -1.84261600     -0.72451100
 1      3.08871700     -2.70335600     -0.98805500
 6      5.04114000     -2.10351700     -0.40993300
 6      5.91476800     -1.05659500     -0.08069600
 1      0.37855600      1.36382700     -1.30128200
 1      2.37670000      5.57751300     -0.61651600
 1      0.81976100      3.69918700     -1.12595100
 1      4.74185200      5.10961300      0.00729200
 1      5.41379300     -3.13910600     -0.41666100
 1      6.96188800     -1.27505200      0.17681100
 6      4.52708900      2.97584800     -0.15792700
 6      5.45468000      0.23983100     -0.08945400
 6     -5.29884500      0.19969000     -0.03013000
 6     -6.35621700      0.84833000      0.62418600
 6     -5.31761200      0.03506900     -1.41840200
 6     -7.42406100      1.33427300     -0.12088100
 1     -6.36594300      0.97432700      1.72088800
 6     -6.39601400      0.53009500     -2.14652700
 1     -4.48105000     -0.45528200     -1.94892900
 6     -7.44592700      1.17809200     -1.50432300
 1     -8.25488900      1.84588600      0.38834200
 1     -6.41298000      0.40531400     -3.23993400
 1     -8.29338000      1.56746300     -2.08826500
 1      5.58116400      2.77041700      0.11752400
 1      6.14581300      1.07099900      0.15922300


