%nprocshared=8
%mem=20GB
#p b3lyp 6-31g* empiricaldispersion=gd3bj opt freq=noraman scrf=(pcm,solvent=diethylether)

title

0 1
16     -1.32269900     -1.13468500     -0.44045300
 8      0.04788100      3.37323000      1.07862200
 7      1.20066500      1.47299500      1.54852100
 7     -1.45628500      1.54146500     -0.58392800
 1     -1.90533400      2.40335800     -0.24971400
 7     -3.46508800      0.55345800     -0.20626300
 1     -3.76588000      1.53490100     -0.20543000
 6      1.39904800      0.00806100      1.41855100
 1      0.50164800     -0.43355000      0.97461900
 6      1.55661600     -0.43411700      2.90544900
 1      2.14174100     -1.35481800      2.99416700
 1      0.56160200     -0.59980000      3.34135700
 6      2.23629100      0.78799700      3.56750100
 1      3.30607500      0.79689500      3.32230400
 1      2.12487600      0.79611300      4.65705100
 6      1.52503700      1.98476300      2.90020200
 1      2.15040000      2.88168900      2.82599000
 1      0.59791800      2.26075200      3.42285500
 6      0.43079300      2.24064500      0.73341900
 6      0.00683100      1.64917300     -0.62283200
 1      0.38784600      0.63784200     -0.76228200
 6     -2.12573500      0.36188000     -0.39836100
 6      0.45430000      2.51215600     -1.84206200
 6      0.17714400      1.68648800     -3.11567000
 1     -0.88691100      1.41771000     -3.17069200
 1      0.43982900      2.27086500     -4.00975200
 1      0.77118800      0.76060500     -3.11465200
 6     -0.31859200      3.84604400     -1.90834200
 1     -0.21742500      4.38013200     -0.95758100
 1      0.07989700      4.46321200     -2.72654500
 1     -1.38482100      3.66595300     -2.10848400
 6      1.96519300      2.79665100     -1.72906900
 1      2.53896000      1.86399200     -1.65378500
 1      2.30440900      3.34579700     -2.61929800
 1      2.17861400      3.41200900     -0.84324800
 6      2.62034800     -0.34271900      0.59173100
 6      2.75714000     -1.66304800      0.06252900
 6      3.60567200      0.59066300      0.35827200
 6      1.78385900     -2.68001700      0.26443900
 6      3.92053600     -1.98299300     -0.71002100
 6      4.75884400      0.27069700     -0.39540000
 1      3.47703700      1.59736200      0.74362500
 6      1.94661200     -3.93645800     -0.27295500
 1      0.88942000     -2.46210200      0.83801200
 6      4.05751100     -3.28824800     -1.25004300
 6      4.91109500     -0.98887500     -0.92132600
 1      5.51763800      1.03225600     -0.55967300
 6      3.09439100     -4.24669800     -1.03894000
 1      1.18545500     -4.69624800     -0.11214700
 1      4.94544100     -3.51528200     -1.83804200
 1      5.79086300     -1.24497400     -1.50931900
 1      3.20936000     -5.24305200     -1.45926400
 6     -4.54040200     -0.34930200     -0.03135700
 6     -5.77181300      0.21914400      0.33693900
 6     -4.45446600     -1.73412200     -0.22569400
 6     -6.89383200     -0.58275200      0.51214500
 1     -5.84252900      1.29515600      0.48801700
 6     -5.58580800     -2.52737500     -0.04206300
 1     -3.49785100     -2.15097100     -0.50536700
 6     -6.80783600     -1.96475000      0.32616700
 1     -7.83826700     -0.12571500      0.79772200
 1     -5.50463300     -3.60109900     -0.19524500
 1     -7.68414400     -2.59261500      0.46550400


