%nprocshared=8
%mem=20GB
#p b3lyp 6-31g* empiricaldispersion=gd3bj opt freq=noraman scrf=(pcm,solvent=diethylether)

title

0 1
16     -1.46287200      0.91015500      1.04260600
 8      0.62312800     -3.52469400     -1.05265500
 7      1.76006100     -1.59803200     -1.42651700
 7     -1.27968100     -1.57117900      0.07351100
 1     -1.65736700     -2.37392500     -0.44069500
 7     -3.35858000     -0.68443900     -0.12321700
 1     -3.57516700     -1.63781000     -0.43515900
 6      1.79287100     -0.10158200     -1.56256800
 6      2.71012100      0.07741700     -2.82767400
 1      3.29896800      0.99747300     -2.75637800
 1      2.07702400      0.13248100     -3.72437300
 6      3.56471700     -1.20377000     -2.87772000
 1      4.37558900     -1.15334500     -2.13966400
 1      3.99696300     -1.38331000     -3.86810300
 6      2.54549600     -2.28349200     -2.47524600
 1      2.99045000     -3.19437700     -2.06214400
 1      1.90284900     -2.57143700     -3.32165200
 6      0.84424900     -2.34143000     -0.73854100
 6      0.12445200     -1.70616900      0.46796400
 1      0.49416600     -0.70195000      0.67840600
 6     -2.07155300     -0.49006000      0.30778700
 6      0.26362500     -2.58613600      1.76527100
 6     -0.13705400     -1.72327800      2.98149100
 1     -1.15587700     -1.33192800      2.87442500
 1     -0.08153900     -2.33062200      3.89778300
 1      0.54157900     -0.86452000      3.08352300
 6     -0.65713100     -3.82310500      1.68850100
 1     -0.42503200     -4.39920200      0.78649500
 1     -0.50207400     -4.45044100      2.57812300
 1     -1.71266800     -3.51820600      1.66653600
 6      1.72310700     -3.05248400      1.95383400
 1      2.39330100     -2.19399400      2.07669400
 1      1.78908600     -3.67012100      2.86137200
 1      2.05545100     -3.65785500      1.10035600
 6      2.48127000      0.52744700     -0.33824600
 6      2.44324600      1.93344600     -0.05355800
 6      3.21101900     -0.29564800      0.49404000
 6      1.84907400      2.90637600     -0.90416100
 6      3.06801600      2.41006200      1.14994600
 6      3.85144900      0.18049500      1.65849400
 1      3.26854500     -1.34923400      0.25264500
 6      1.82323000      4.24124200     -0.57046700
 1      1.41789800      2.60139000     -1.84636800
 6      3.00993600      3.79051800      1.47359100
 6      3.75691500      1.50554100      1.99669700
 1      4.40227700     -0.51577900      2.28659100
 6      2.39506800      4.69246700      0.63956700
 1      1.36095500      4.95602300     -1.24728500
 1      3.47607900      4.12103100      2.40041800
 1      4.21926600      1.88824900      2.90479500
 1      2.35793500      5.74796900      0.89803900
 6     -4.46624200      0.18873000     -0.21075900
 6     -5.69732700     -0.39881900     -0.54881600
 6     -4.39857600      1.57518200     -0.01658600
 6     -6.83764700      0.38436200     -0.68857400
 1     -5.75418800     -1.47572400     -0.70048400
 6     -5.54955500      2.34813000     -0.15674100
 1     -3.44503100      2.00199000      0.25891600
 6     -6.77219500      1.76599000     -0.49221200
 1     -7.78169400     -0.08801300     -0.94978800
 1     -5.48248900      3.42249800     -0.00058300
 1     -7.66398300      2.37840500     -0.59859000
 6      0.35888800      0.41609700     -1.87174100
 1     -0.21257500     -0.40017100     -2.33002900
 1     -0.16174800      0.76413100     -0.97455700
 1      0.38455600      1.23576100     -2.59760300


