%nprocshared=8
%mem=6GB
#p pddg opt freq=noraman scrf=(pcm,solvent=diethylether)

title

0 1
16      1.73265300      0.79583300     -0.72571800
 8     -0.57244500     -3.45252600      1.29047300
 7     -1.97158500     -1.69585900      1.19127500
 7      1.44431800     -1.65388200      0.27215400
 1      1.83970200     -2.52009300      0.57792100
 7      3.58502300     -0.74777900      0.43753600
 1      3.78624800     -1.45250500      1.11419700
 6     -2.12832000     -0.20194200      1.35527800
 6     -3.23590900     -0.04197000      2.43120100
 1     -3.95816600      0.76695900      2.18569700
 1     -2.81068000      0.27065100      3.41180100
 6     -3.92793600     -1.39351500      2.54691400
 1     -4.81488700     -1.45484600      1.88203100
 1     -4.31908700     -1.57705300      3.56763300
 6     -2.86076700     -2.40960900      2.15807500
 1     -3.28625900     -3.31844500      1.67792200
 1     -2.31195600     -2.77434400      3.05896900
 6     -0.80020700     -2.36568500      0.76273000
 6      0.10083800     -1.79798000     -0.35529000
 1     -0.29762500     -0.77893000     -0.69728500
 6      2.26662000     -0.55761100      0.00030600
 6      0.15657600     -2.70293300     -1.62298000
 6      0.94123400     -1.96856200     -2.71609100
 1      1.99986200     -1.82833600     -2.46189900
 1      0.91860300     -2.53057700     -3.65993800
 1      0.52470100     -0.97184300     -2.92155400
 6      0.82000700     -4.06114000     -1.41257700
 1      0.31136300     -4.68320200     -0.66772700
 1      0.80980100     -4.64011000     -2.34834100
 1      1.87631000     -3.99237300     -1.12241800
 6     -1.25471500     -2.92946200     -2.16135200
 1     -1.70627000     -1.99393400     -2.52917200
 1     -1.24367800     -3.61760900     -3.01863900
 1     -1.93501900     -3.36566800     -1.41858500
 6     -2.59125200      0.47401500      0.07393300
 6     -2.67826100      1.90114300     -0.04998700
 6     -2.99281000     -0.29830000     -0.99076300
 6     -2.50013500      2.80027400      1.03816800
 6     -3.00955500      2.45743600     -1.30306600
 6     -3.31304800      0.26738600     -2.24579100
 1     -3.08510400     -1.39778200     -0.92311700
 6     -2.59898900      4.15541600      0.86455700
 1     -2.27234500      2.41230900      2.05208500
 6     -3.08664400      3.86642900     -1.47255300
 6     -3.29505600      1.62229700     -2.41633700
 1     -3.55110500     -0.41019400     -3.08081500
 6     -2.88115500      4.70098300     -0.40748400
 1     -2.45744200      4.83370200      1.71948200
 1     -3.31910600      4.27739600     -2.46949300
 1     -3.51576400      2.07520900     -3.39725000
 1     -2.93856000      5.79290000     -0.52844100
 6      4.56936300      0.30073800      0.41383400
 6      5.32406500      0.53667300      1.57198700
 6      4.82926300      1.01485800     -0.76030800
 6      6.33368900      1.49161600      1.54567600
 1      5.14123100     -0.02536700      2.50435900
 6      5.84298700      1.96881700     -0.76478100
 1      4.22696400      0.85599800     -1.67405300
 6      6.59396100      2.20905700      0.38120500
 1      6.92767300      1.68048300      2.45273500
 1      6.04775900      2.53565700     -1.68577600
 1      7.39254300      2.96591300      0.36834700
 6     -0.81468500      0.40606700      1.86410100
 1     -0.29150700     -0.23758500      2.58419600
 1     -0.10264100      0.64972900      1.05611300
 1     -0.98769200      1.35643100      2.40034100


