%nprocshared=8
%mem=6GB
#p pddg opt freq=noraman scrf=(pcm,solvent=diethylether)

title

0 1
16     -2.41244100      0.90433600     -0.47287900
 8     -0.16965600     -3.43795400      0.93866400
 7      1.10361100     -2.36488500     -0.55574500
 7     -1.98761000     -1.31176000      0.94211700
 1     -2.29400500     -1.99742000      1.60140200
 7     -4.21676500     -0.79728000      0.54263200
 1     -4.47065300     -1.40263300      1.29325000
 6      1.35977100     -1.31647800     -1.60103000
 6      2.33392500     -1.96573600     -2.62193300
 1      3.35645000     -1.52761900     -2.59421700
 1      2.01549100     -1.77630400     -3.67232800
 6      2.37350900     -3.46246900     -2.32249200
 1      3.41795500     -3.81451700     -2.17963400
 1      1.99115100     -4.05989800     -3.17626300
 6      1.54071300     -3.70159900     -1.06384400
 1      2.12837400     -4.21188200     -0.26627200
 1      0.67878900     -4.37873100     -1.27735900
 6      0.12809200     -2.34213700      0.45851100
 6     -0.52302100     -1.04735300      0.97826800
 1     -0.26865800     -0.15607600      0.30704700
 6     -2.88373900     -0.40516900      0.38370000
 6     -0.03856200     -0.65023700      2.40051600
 6     -0.76749000      0.62753400      2.82673800
 1     -1.83981800      0.47232200      3.00022700
 1     -0.35527200      1.01783600      3.76748000
 1     -0.66963800      1.42413800      2.07500600
 6     -0.26024300     -1.70731900      3.47492100
 1      0.29291500     -2.63397100      3.27909300
 1      0.09423100     -1.33974900      4.44905000
 1     -1.31456000     -1.97465000      3.61742300
 6      1.45245200     -0.32874400      2.33629500
 1      1.66211500      0.49269100      1.63136800
 1      1.83180400     -0.01480200      3.31810000
 1      2.06142000     -1.18538000      2.01567400
 6      1.74736400      4.76342500     -0.45581800
 6      1.18308300      3.56766300     -0.83985200
 6      1.91212600      2.36580500     -0.69249200
 6      3.19613400      2.38806400     -0.14317500
 6      3.04603100      4.79169400      0.08295700
 6      1.33325900      1.12823700     -1.12331400
 6      3.89452200      1.13733800      0.03012700
 6      3.30099300     -0.07654100     -0.37406400
 6      1.99358400     -0.06090300     -1.01319000
 6      4.01418700     -1.26856700     -0.10374400
 1      3.61599200     -2.26297300     -0.36425100
 6      5.25303700     -1.24841600      0.49852800
 6      5.84807700     -0.03251600      0.86245800
 1      0.30218400      1.21896200     -1.52714500
 1      1.18587100      5.70306600     -0.56838700
 1      0.16186400      3.54142500     -1.25846300
 1      3.48807000      5.75414600      0.38159300
 1      5.78365300     -2.19225800      0.69681500
 1      6.84279600     -0.02370600      1.33241000
 6      3.76026200      3.62502900      0.24040600
 6      5.17259800      1.14297400      0.63207100
 6     -5.32328800     -0.03052000      0.03759400
 6     -6.40926500      0.21385700      0.89087100
 6     -5.35720800      0.39671100     -1.29364200
 6     -7.52118400      0.89049900      0.40358800
 1     -6.40663600     -0.12686600      1.94096600
 6     -6.47956200      1.07436700     -1.76136000
 1     -4.49926000      0.23179200     -1.97133200
 6     -7.55861100      1.32261500     -0.91943600
 1     -8.37473900      1.08545400      1.07045300
 1     -6.50822900      1.41506700     -2.80755100
 1     -8.44092000      1.86032300     -1.29771400
 1      4.78127300      3.64895300      0.67198300
 1      5.63451800      2.10736500      0.92782400
 6      0.05565600     -1.05325200     -2.37927600
 1     -0.30769800     -1.96717300     -2.87268300
 1     -0.78745000     -0.67732100     -1.77446100
 1      0.20904100     -0.32501500     -3.18871400


