%nprocshared=8
%mem=20GB
#p b3lyp 6-31g* empiricaldispersion=gd3bj opt freq=noraman scrf=(pcm,solvent=diethylether)

title

0 1
16     -2.08062000      1.13852700     -0.80831600
 8     -0.85595500     -2.88449900      1.36595200
 7      0.37340200     -2.17971000     -0.43009200
 7     -1.91772100     -0.34749000      1.43591900
 1     -2.30832200     -1.17710000      1.90610900
 7     -4.04236600      0.01152700      0.72684600
 1     -4.23317700     -0.55569500      1.56100300
 6      0.67309300     -1.09676100     -1.42383200
 1     -0.22729400     -0.47636100     -1.51390800
 6      0.87719300     -1.87758800     -2.75408300
 1      1.93193600     -2.14591400     -2.88642200
 1      0.56671200     -1.26369600     -3.60622300
 6      0.00818300     -3.14517200     -2.57142900
 1      0.30255100     -3.95965100     -3.24243000
 1     -1.04860800     -2.90438400     -2.74962900
 6      0.21744500     -3.50384100     -1.08472300
 1      1.12056100     -4.11452900     -0.94338500
 1     -0.62369400     -4.02044800     -0.61531200
 6     -0.30992100     -1.96276400      0.73022400
 6     -0.47083400     -0.51854200      1.24108600
 1     -0.16446600      0.21596900      0.50229100
 6     -2.71759700      0.23253500      0.47999100
 6      0.28919000     -0.23629100      2.57250900
 6      0.17006600      1.27619600      2.85576700
 1     -0.88715000      1.56980600      2.91248900
 1      0.65764300      1.52191500      3.81065600
 1      0.65552700      1.85572600      2.05642200
 6     -0.31402200     -1.03799300      3.74445600
 1     -0.32595100     -2.10754500      3.50664400
 1      0.28414800     -0.86852800      4.65130700
 1     -1.34315100     -0.70958300      3.94972200
 6      1.77662700     -0.60708100      2.40673200
 1      2.24997800     -0.00180300      1.62664900
 1      2.30570700     -0.42618800      3.35367600
 1      1.90041000     -1.66641400      2.14097600
 6      3.19660200      4.44031600     -0.33289000
 6      2.24163400      3.49993800     -0.66118600
 6      2.56261600      2.12415600     -0.69603600
 6      3.88046600      1.69540300     -0.38490400
 6      4.50717500      4.02315200     -0.03206300
 6      1.56883300      1.15654300     -1.03207400
 6      4.17265600      0.27267700     -0.39698500
 6      3.14041300     -0.66384600     -0.70995400
 6      1.82079000     -0.18336400     -1.04541400
 6      3.43785500     -2.04471900     -0.64436900
 1      2.65050500     -2.76087400     -0.82714900
 6      4.70044400     -2.49773000     -0.31935400
 6      5.72387600     -1.57670700     -0.04133500
 1      0.56200700      1.51233700     -1.24216700
 1      2.94228600      5.49707300     -0.30649200
 1      1.22308900      3.80130400     -0.89910800
 1      5.26375200      4.76071500      0.22501400
 1      4.89927000     -3.56576800     -0.27316000
 1      6.72155000     -1.92774000      0.21100800
 6      4.83872200      2.68130800     -0.05807100
 6      5.45687300     -0.22266300     -0.07693400
 6     -5.22164700      0.42042500      0.06116500
 6     -6.41708800     -0.17060300      0.50501500
 6     -5.26588700      1.36857800     -0.96914700
 6     -7.63224200      0.17749600     -0.07325400
 1     -6.38625400     -0.90847400      1.30517300
 6     -6.49053500      1.70566000     -1.54335000
 1     -4.33514300      1.80773700     -1.29730000
 6     -7.67730000      1.11839200     -1.10514900
 1     -8.54705600     -0.29061000      0.28222200
 1     -6.51027500      2.44227100     -2.34330600
 1     -8.62691900      1.38916700     -1.55949400
 1      5.85605100      2.39019900      0.18336200
 1      6.25607100      0.47371400      0.15503500


