%nprocshared=8
%mem=3GB
#p b3lyp cc-pVTZ empiricaldispersion=gd3bj scrf=(pcm,solvent=diethylether)

title

0 1
16      1.52134600      1.10357800     -0.59038200
 8     -0.35872600     -3.51235100      0.87492300
 7     -1.31758700     -1.56180000      1.49444000
 7      1.40450900     -1.57553100     -0.43249400
 1      1.84082700     -2.46487100     -0.21590500
 7      3.45557100     -0.70114400     -0.01186100
 1      3.66222700     -1.63597100      0.32148200
 6     -1.47614600     -0.09404200      1.45680900
 1     -0.54732100      0.35447500      1.10181400
 6     -1.70118800      0.24293300      2.95000600
 1     -2.23791600      1.18527000      3.07879300
 1     -0.72962800      0.32730300      3.45018800
 6     -2.46847000     -0.97731100      3.47476900
 1     -3.52136400     -0.91207800      3.18129000
 1     -2.42563100     -1.07608200      4.56230300
 6     -1.78966500     -2.15026100      2.75997900
 1     -2.45929900     -2.99171500      2.56108500
 1     -0.93180700     -2.53727400      3.32249000
 6     -0.60133300     -2.32327600      0.63427700
 6     -0.04077500     -1.64855500     -0.62880900
 1     -0.39227600     -0.62272200     -0.70944600
 6      2.15167800     -0.44809000     -0.33939600
 6     -0.41156500     -2.36718600     -1.96272800
 6      0.01633000     -1.44333000     -3.11628900
 1      1.09276400     -1.24543900     -3.08615700
 1     -0.21647900     -1.91166200     -4.07949400
 1     -0.50313200     -0.48036100     -3.06745000
 6      0.29129400     -3.72642100     -2.11842200
 1      0.03999500     -4.39999700     -1.29713800
 1     -0.01655300     -4.18919100     -3.06293000
 1      1.38096800     -3.61039400     -2.15535500
 6     -1.93429900     -2.56764500     -2.01050800
 1     -2.46589400     -1.61707300     -1.90432600
 1     -2.22097600     -3.01028000     -2.97099800
 1     -2.27389100     -3.24185600     -1.21699800
 6     -2.63088400      0.36363300      0.58147800
 6     -2.68383000      1.72559800      0.13869500
 6     -3.65009200     -0.50031000      0.23992900
 6     -1.68264100      2.68425800      0.45879100
 6     -3.79486800      2.15031000     -0.66397000
 6     -4.74777800     -0.07660600     -0.54550900
 1     -3.59971400     -1.53428100      0.56333000
 6     -1.76874500      3.98189400      0.00463600
 1     -0.82977900      2.39362900      1.05974100
 6     -3.85195000      3.49517900     -1.11603400
 6     -4.81745100      1.22078700     -0.99143400
 1     -5.52933300     -0.78768600     -0.79677200
 6     -2.86257700      4.39445000     -0.79115600
 1     -0.98788500      4.69320400      0.25721000
 1     -4.69783900      3.80123400     -1.72640300
 1     -5.65319700      1.55576100     -1.60017300
 1     -2.91734900      5.42015300     -1.14422700
 6      4.53432600      0.21160400      0.11024600
 6      5.39834000      0.06097500      1.20033700
 6      4.79325900      1.18959700     -0.85617800
 6      6.51145600      0.89063600      1.33006700
 1      5.19067000     -0.70099700      1.94692400
 6      5.89844700      2.02535000     -0.70863000
 1      4.13415500      1.28951000     -1.70839600
 6      6.76165300      1.88173800      0.38019100
 1      7.17593700      0.76515200      2.17988200
 1      6.09164300      2.78599200     -1.45944200
 1      7.62375700      2.53368100      0.48432900


