%nprocshared=8
%mem=3GB
#p b3lyp cc-pVTZ empiricaldispersion=gd3bj scrf=(pcm,solvent=diethylether)

title

0 1
16     -1.82093100      1.29668700     -0.49539100
 8      0.02818200     -3.21062700      1.38017100
 7      1.40419200     -2.48822300     -0.26139300
 7     -1.46281200     -0.92192100      0.98328100
 1     -1.83155900     -1.75464100      1.43124500
 7     -3.61848900     -0.50366100      0.42734100
 1     -3.76745100     -1.45010400      0.75846400
 6      1.71325600     -1.62943000     -1.46050400
 6      2.61724100     -2.57876900     -2.31828900
 1      3.46149100     -2.03522100     -2.74754200
 1      2.02304500     -2.97002000     -3.14973100
 6      3.04277000     -3.73349600     -1.40300300
 1      3.95170700     -3.48712200     -0.84517800
 1      3.23562700     -4.65575000     -1.95765400
 6      1.86391100     -3.87331300     -0.44752700
 1      2.12074300     -4.30640700      0.52061700
 1      1.06063700     -4.48472700     -0.88088700
 6      0.47866700     -2.27107000      0.70925300
 6     -0.00624500     -0.85056800      1.02962300
 1      0.30995900     -0.13293400      0.28112400
 6     -2.31451100     -0.09084100      0.34182600
 6      0.51043200     -0.34954400      2.42633300
 6      0.23743800      1.16144700      2.51720500
 1     -0.82873600      1.38281000      2.41259600
 1      0.57232200      1.54104000      3.48986000
 1      0.77009000      1.70886900      1.73268400
 6     -0.20136900     -1.06238600      3.58823300
 1     -0.05407600     -2.14380300      3.54396000
 1      0.19785700     -0.69309800      4.53958700
 1     -1.27752400     -0.85759900      3.58245800
 6      2.02407900     -0.58983400      2.53878900
 1      2.57285400     -0.08663400      1.74049100
 1      2.38599000     -0.19672500      3.49563000
 1      2.27083800     -1.65676900      2.50419500
 6      2.78592500      4.46514300     -0.49833300
 6      2.08581500      3.35409800     -0.91352000
 6      2.65430100      2.05809100     -0.80072600
 6      3.96433000      1.92084600     -0.24501400
 6      4.66372200      3.08421800      0.16756500
 6      4.08747600      4.32936500      0.04393400
 1      0.95600500      1.03641500     -1.62445200
 1      2.34092000      5.45218600     -0.58414000
 1      1.08473700      3.45001300     -1.32515700
 6      1.94910500      0.89586900     -1.21369600
 6      4.50578000      0.61349900     -0.11874800
 1      5.66039900      2.97509000      0.58758400
 1      4.62912600      5.21417300      0.36579300
 6      3.78340300     -0.48989000     -0.50142300
 6      2.47815800     -0.36718900     -1.05842000
 1      5.49947400      0.49584800      0.30587000
 1      4.21050500     -1.47572300     -0.35726600
 6     -4.78417200      0.12912300     -0.07363800
 6     -5.73365700     -0.66518900     -0.72570300
 6     -5.03757000      1.48958100      0.13413700
 6     -6.92657500     -0.10151800     -1.17707500
 1     -5.53115900     -1.72105300     -0.88429000
 6     -6.22453400      2.04763000     -0.33634900
 1     -4.31057600      2.09656200      0.65741400
 6     -7.17335600      1.25920000     -0.99181200
 1     -7.65662300     -0.72744500     -1.68183000
 1     -6.41283300      3.10534800     -0.17671900
 1     -8.09805100      1.70125300     -1.35054200
 6      0.42265900     -1.34405800     -2.24306000
 1     -0.07382200     -2.29344900     -2.46619500
 1     -0.28286200     -0.70803800     -1.70546500
 1      0.66129200     -0.85377500     -3.19258500


