%nprocshared=8
%mem=6GB
#p b3lyp midix empiricaldispersion=gd3bj opt freq=noraman scrf=(pcm,solvent=diethylether)

title

0 1
16     -0.91935900     -0.91132400      1.58798900
 8      1.72739800     -0.08628800     -1.78405100
 7      2.39233400      0.64036100      0.23752300
 7      0.16148100     -2.08713500     -0.54033900
 1      0.14584200     -2.32880700     -1.50927600
 7     -2.10966500     -1.56649300     -0.71491300
 1     -2.16438700     -2.16998700     -1.50572200
 6      0.98246900      3.48357000     -1.58620900
 1      1.81498500      3.60960400     -2.29855500
 6     -0.23802300      4.09894400     -1.84734700
 1     -0.35880200      4.71068500     -2.75381100
 6     -1.30591900      3.93658500     -0.96991900
 6     -1.14793900      3.16326600      0.17607500
 1     -1.99235600      3.02639200      0.87054300
 6      0.07459700      2.55723300      0.45092200
 1      0.18171100      1.95412300      1.37322300
 6      1.14103400      2.70765800     -0.43615900
 6      2.48262600      2.07101000     -0.17083900
 1      3.12520000      2.13084100     -1.09964100
 6      3.17433600      2.75088600      1.02419300
 1      2.84445800      3.80058400      1.17026000
 1      4.26901100      2.82489100      0.85184200
 6      2.86293500      1.88518400      2.24614400
 1      2.04114800      2.33236100      2.84645100
 1      3.72746500      1.82033300      2.93648900
 6      2.45372200      0.50823900      1.71709800
 1      1.46675400      0.18469300      2.14909300
 1      3.18277800     -0.29628900      1.97507700
 6      1.87412400     -0.35665100     -0.59105900
 6      1.51077900     -1.74448800     -0.02081100
 1      1.44714700     -1.74390300      1.11989000
 6     -0.96415300     -1.52259200      0.07409700
 6      2.55790100     -2.83065300     -0.37266800
 6      2.06793300     -4.18492300      0.14434300
 1      1.19325100     -4.55886200     -0.40297200
 1      2.84943300     -4.94984900      0.03490500
 1      1.80352700     -4.14725700      1.20952500
 6      2.85888400     -2.96353400     -1.85933400
 1      3.27944700     -2.04625100     -2.28975700
 1      3.60265200     -3.75506100     -2.03047000
 1      1.97909800     -3.23473000     -2.45634100
 6      3.85722000     -2.49366600      0.36247200
 1      3.71532800     -2.46209700      1.45249000
 1      4.62861600     -3.24997000      0.16338100
 1      4.27463100     -1.52453400      0.06064700
 1     -2.27249000      4.41670400     -1.18267500
 6     -3.38479500     -1.08326000     -0.25818600
 6     -4.50758600     -1.90685400     -0.41423100
 6     -3.51355700      0.20918500      0.26119100
 6     -5.75822300     -1.42975600     -0.03827900
 1     -4.42254700     -2.92244500     -0.83809700
 6     -4.77442400      0.66614400      0.63286200
 1     -2.63234700      0.86804400      0.40118700
 6     -5.89362400     -0.14752700      0.48684500
 1     -6.64377200     -2.07234600     -0.15679600
 1     -4.88018900      1.68133100      1.04503100
 1     -6.88598900      0.22214300      0.78557600


