%nprocshared=8
%mem=3GB
#p b3lyp cc-pVTZ empiricaldispersion=gd3bj scrf=(pcm,solvent=diethylether)

title

0 1
16     -3.31000700     -0.28941700      1.15585300
 8      0.64543900     -1.90810500     -1.38121400
 7      0.45806300     -2.45432600      0.81357500
 7     -1.94852800     -0.95687100     -1.06380700
 1     -1.36552700     -0.66469200     -1.84271700
 7     -2.42618600      1.25232500     -0.89420800
 1     -1.74842400      1.32270900     -1.64477200
 6      1.88535400     -2.18414100      1.10264900
 1      2.47833700     -2.97868000      0.63462800
 6      1.95712500     -2.33275200      2.63744600
 1      1.74308200     -1.37043800      3.11309500
 1      2.95313400     -2.64973100      2.95532700
 6      0.85555300     -3.34812100      2.95842900
 1      0.52931100     -3.31735300      4.00105800
 1      1.20050000     -4.36459300      2.73816100
 6     -0.26931800     -2.96064500      1.99314700
 1     -0.91370400     -2.17947800      2.41651800
 1     -0.89902900     -3.81056800      1.72614100
 6     -0.05580700     -2.23635600     -0.41749300
 6     -1.58557400     -2.28149600     -0.56730500
 1     -2.06993000     -2.38120500      0.40155500
 6     -2.53403400      0.01889100     -0.31657000
 6     -2.10888600     -3.42090800     -1.48888000
 6     -3.64452200     -3.41864500     -1.41228400
 1     -4.05188000     -2.45621200     -1.73805500
 1     -4.05763500     -4.20140200     -2.05854400
 1     -3.99180100     -3.60096700     -0.38912600
 6     -1.67025200     -3.23362400     -2.95082800
 1     -0.58232400     -3.20992500     -3.04366400
 1     -2.05778300     -4.05916500     -3.55854000
 1     -2.07169100     -2.30336900     -3.36839500
 6     -1.56948000     -4.76121700     -0.96161900
 1     -1.89503700     -4.94672100      0.06859200
 1     -1.94387800     -5.58574200     -1.57784600
 1     -0.47454400     -4.79525900     -0.98954300
 6      6.27716200      1.30568400     -1.50583300
 6      5.61435200      0.17701500     -1.06695300
 6      4.34407600      0.27305300     -0.45319800
 6      3.73385500      1.54640100     -0.28337300
 6      5.67957800      2.56942300     -1.33957000
 6      3.66100300     -0.89896200     -0.00440300
 6      2.42486100      1.61296200      0.34941400
 6      1.77997600      0.41388800      0.79281900
 6      2.43701300     -0.86400400      0.59448100
 6      0.50725700      0.52533900      1.40535100
 1     -0.00915300     -0.36203600      1.73687400
 6     -0.11718200      1.74552800      1.57363500
 6      0.51904400      2.92045200      1.14310700
 1      4.15067600     -1.85710700     -0.16287900
 1      7.25242500      1.22141400     -1.97627900
 1      6.06024600     -0.80698200     -1.18775200
 1      6.19568100      3.46177800     -1.68181600
 1     -1.10507500      1.78263900      2.02074900
 1      0.03133200      3.88178800      1.26937700
 6      4.43717000      2.68421800     -0.74223100
 6      1.76213100      2.84729400      0.54441700
 6     -2.94055200      2.50669400     -0.49039700
 6     -2.15452300      3.63291400     -0.76888300
 6     -4.20069100      2.66782800      0.09663200
 6     -2.61392000      4.90733300     -0.44552700
 1     -1.17589300      3.50199600     -1.22140200
 6     -4.64470100      3.94773300      0.42743800
 1     -4.81923500      1.80318700      0.29109600
 6     -3.85944400      5.07119700      0.16331400
 1     -1.99204500      5.77039600     -0.66481700
 1     -5.62192100      4.06351200      0.88724800
 1     -4.21638400      6.06319000      0.42316800
 1      4.00676800      3.67257500     -0.62966400
 1      2.23483100      3.76621700      0.21776800


