%nprocshared=8
%mem=6GB
#p pddg opt freq=noraman scrf=(pcm,solvent=diethylether)

title

0 1
16      2.60295900     -0.93146700     -0.54361100
 8      0.64796600      3.47770200      1.08728800
 7     -0.67311700      2.58644800     -0.48270400
 7      2.31393400      1.23173900      0.98239000
 1      2.65631300      1.85538900      1.68418300
 7      4.50710000      0.56394500      0.60472600
 1      4.78768400      1.11618100      1.38626400
 6     -0.98562500      1.62111200     -1.59043300
 6     -1.89277400      2.39674700     -2.58449000
 1     -2.94461900      2.03367200     -2.59567700
 1     -1.57086700      2.24485700     -3.63992500
 6     -1.82958000      3.87287300     -2.19925300
 1     -2.84832700      4.29269400     -2.05391500
 1     -1.38680200      4.48770800     -3.01044400
 6     -1.00812700      3.97806600     -0.91513200
 1     -1.57541900      4.47853900     -0.09685600
 1     -0.09849100      4.60624800     -1.07289800
 6      0.28263500      2.43545800      0.53967400
 6      0.83396200      1.06981000      0.98886300
 1      0.52664600      0.23958900      0.26371700
 6      3.15238500      0.28790000      0.39507800
 6      0.30372400      0.62544200      2.38068500
 6      0.92573500     -0.72976600      2.73102500
 1      2.00491200     -0.66971200      2.92057200
 1      0.47376300     -1.14365600      3.64297600
 1      0.77517000     -1.46894800      1.93074900
 6      0.59676500      1.59280000      3.52074700
 1      0.12922300      2.57431200      3.37642000
 1      0.19575600      1.19889100      4.46613800
 1      1.66774800      1.75750500      3.69208200
 6     -1.20699900      0.42715300      2.28763400
 1     -1.47255000     -0.33012000      1.53157700
 1     -1.62040800      0.08345400      3.24547400
 1     -1.74387100      1.34713500      2.01811700
 6     -1.89093300     -4.46862300     -0.75954400
 6     -1.21249200     -3.30055100     -1.09137500
 6     -1.82493900     -2.05811600     -0.89131900
 6     -3.11639600     -1.99437500     -0.34396300
 6     -3.17491900     -4.41942600     -0.22527000
 6     -1.15180400     -0.84106200     -1.25216900
 6     -3.71824000     -0.71938400     -0.11646200
 6     -3.03431300      0.47725100     -0.45237400
 6     -1.71957000      0.38604100     -1.08140400
 6     -3.66487100      1.68643300     -0.13080200
 1     -3.20289400      2.66724700     -0.33294300
 6     -4.92462100      1.71617600      0.45944500
 6     -5.60630100      0.54451500      0.75339900
 1     -0.12734000     -0.99097200     -1.65489000
 1     -1.40573200     -5.44329300     -0.92131000
 1     -0.19163700     -3.35287600     -1.50796000
 1     -3.70444600     -5.35159000      0.03278300
 1     -5.38692900      2.68738200      0.69480000
 1     -6.60890500      0.57919200      1.21108400
 6     -3.79363200     -3.18478700     -0.01055700
 6     -5.00167300     -0.68210900      0.46922200
 6     -5.11443600     -3.11050300      0.55508800
 1     -5.63809100     -4.05022900      0.79742400
 6     -5.69030300     -1.90774700      0.78620300
 1     -6.70018500     -1.84163900      1.22530800
 6      5.56369100     -0.26927800      0.09769700
 6      6.59584800     -0.64124100      0.97155200
 6      5.60862500     -0.63807000     -1.25038900
 6      7.66455900     -1.38625000      0.48738500
 1      6.58521300     -0.34802500      2.03584600
 6      6.68706200     -1.38572800     -1.71493900
 1      4.79150900     -0.37100800     -1.94569000
 6      7.71213900     -1.76073500     -0.85282100
 1      8.47564100     -1.68141400      1.17025600
 1      6.72393100     -1.68049000     -2.77473900
 1      8.55987900     -2.35302400     -1.22866000
 6      0.30808200      1.30483600     -2.36580900
 1      0.74723100      2.21531500     -2.80032500
 1      1.11027500      0.83160000     -1.77388900
 1      0.11414300      0.63783800     -3.21821200


