%nprocshared=8
%mem=3GB
#p b3lyp cc-pVTZ empiricaldispersion=gd3bj scrf=(pcm,solvent=diethylether)

title

0 1
16     -2.30954400      1.39817400     -0.24994400
 8     -0.55313900     -3.34191400      1.31802800
 7      0.48288800     -2.60800100     -0.54711400
 7     -2.04217900     -0.95919600      1.01600200
 1     -2.45643000     -1.77568400      1.45274700
 7     -4.18414200     -0.37814800      0.56747500
 1     -4.37233000     -1.34677800      0.79986300
 6      0.75794600     -1.65919200     -1.67996400
 6      1.55099400     -2.55649900     -2.67238600
 1      2.62168600     -2.50814300     -2.46874800
 1      1.39857100     -2.20594100     -3.69608700
 6      1.01426900     -3.97305100     -2.43520600
 1      1.73010400     -4.74552700     -2.72792800
 1      0.09790100     -4.13907900     -3.00987500
 6      0.71167100     -4.01535900     -0.93401000
 1      1.54869300     -4.42231900     -0.35307400
 1     -0.16820400     -4.61071700     -0.68371700
 6     -0.19587400     -2.38971600      0.60899600
 6     -0.58043300     -0.96628900      1.05196500
 1     -0.23851200     -0.21304700      0.34881800
 6     -2.86139800     -0.02581000      0.47810600
 6     -0.03225200     -0.59272600      2.47673100
 6     -0.18462200      0.92747600      2.65715200
 1     -1.23013500      1.23830100      2.57822700
 1      0.18826800      1.22299600      3.64503400
 1      0.38328200      1.47551700      1.89762600
 6     -0.80425000     -1.31012700      3.59799700
 1     -0.73453500     -2.39495900      3.49670200
 1     -0.38549700     -1.01975600      4.56819200
 1     -1.86231300     -1.02531300      3.60104800
 6      1.45637500     -0.95562700      2.58125800
 1      2.05505100     -0.40796200      1.85184700
 1      1.82552300     -0.69470200      3.57956100
 1      1.62541100     -2.02618700      2.43084700
 6      2.00413200      4.43343900     -1.16350000
 6      1.30741300      3.28181500     -1.52387000
 6      1.82339300      2.01288500     -1.21877500
 6      3.06158600      1.90667500     -0.52944400
 6      3.22325800      4.34113800     -0.49403500
 6      1.12654200      0.81321300     -1.56951900
 6      3.57187500      0.61636700     -0.20073500
 6      2.84817500     -0.57253800     -0.55064200
 6      1.57864700     -0.43750400     -1.25755000
 6      3.39806900     -1.80575000     -0.15537600
 1      2.87060100     -2.72430800     -0.35597100
 6      4.60495600     -1.88323100      0.53625800
 6      5.31089500     -0.73349800      0.86739200
 1      0.17860300      0.94128200     -2.07391000
 1      1.59329300      5.40971900     -1.40328600
 1      0.35393800      3.35448500     -2.03931400
 1      3.76217000      5.24245100     -0.21430400
 1      4.98836900     -2.85748700      0.82504600
 1      6.24956900     -0.79839800      1.41078900
 6      3.77008900      3.09090200     -0.16411000
 6      4.80933100      0.52622500      0.51176500
 6      5.01591900      2.95927200      0.53609400
 1      5.55508900      3.86229500      0.80956100
 6      5.50893200      1.73305300      0.85775400
 1      6.44971700      1.64006300      1.39382900
 6     -5.32855200      0.35056900      0.15893800
 6     -6.34526300     -0.34627100     -0.50385000
 6     -5.49796300      1.70559800      0.46500900
 6     -7.52055200      0.30902800     -0.86891500
 1     -6.20910400     -1.39895300     -0.73780700
 6     -6.66889700      2.35593700      0.08056500
 1     -4.71998900      2.23652200      0.99715000
 6     -7.68398200      1.66555900     -0.58600400
 1     -8.30272000     -0.24215200     -1.38269700
 1     -6.79180700      3.40890600      0.31698100
 1     -8.59514000      2.17944100     -0.87727600
 6     -0.59020800     -1.30402500     -2.33457900
 1     -1.12178900     -2.22835600     -2.57603900
 1     -1.22559500     -0.70654300     -1.67921000
 1     -0.44122700     -0.74936100     -3.26534800


