%nprocshared=8
%mem=6GB
#p b3lyp midix empiricaldispersion=gd3bj opt freq=noraman scrf=(pcm,solvent=diethylether)

title

0 1
16     -1.79885100     -0.98140500     -0.18796300
 8     -0.35730300      2.86561900      1.63254700
 7      1.09801100      1.13564000      1.62387200
 7     -1.76943800      1.65644300     -0.52750500
 1     -2.18125800      2.55717900     -0.39938300
 7     -3.87271400      0.71701400     -0.18047100
 1     -4.26318700      1.58514300     -0.47727900
 6      1.47160500     -0.21924900      1.12003700
 1      0.72351600     -0.55006000      0.31143600
 6      1.37818200     -1.13097000      2.35540000
 1      2.10098800     -1.97415100      2.31897600
 1      0.38074600     -1.62329600      2.38678500
 6      1.60163300     -0.22766500      3.56544100
 1      2.63597700     -0.32781600      3.95488600
 1      0.94941100     -0.51679800      4.41455500
 6      1.32377000      1.20588700      3.09596100
 1      2.19270300      1.87908800      3.27786300
 1      0.47321000      1.65672200      3.65883500
 6      0.12472600      1.93030000      0.99359600
 6     -0.28749900      1.64207300     -0.46445000
 1      0.08360400      0.59917700     -0.78438400
 6     -2.50037700      0.48985100     -0.29550600
 6      0.33106000      2.64640600     -1.47079200
 6     -0.06499800      2.22903700     -2.88919000
 1     -1.13729500      2.35327700     -3.08572700
 1      0.45851100      2.84102100     -3.63694200
 1      0.19092800      1.18176700     -3.09861500
 6     -0.08854800      4.09588500     -1.26113400
 1      0.16442100      4.46956600     -0.26157800
 1      0.43007300      4.74954000     -1.97746600
 1     -1.16062300      4.26867500     -1.42046200
 6      1.85332200      2.56197900     -1.36452000
 1      2.22051400      1.53289700     -1.49596000
 1      2.33713700      3.18117000     -2.13205000
 1      2.23522700      2.90842200     -0.39292500
 6      2.85921400     -0.26574100      0.52787500
 6      3.25505900     -1.42642000     -0.21124100
 6      3.74648600      0.77284500      0.68204200
 6      2.41621200     -2.56504800     -0.37193400
 6      4.53250700     -1.45276100     -0.80329900
 6      5.03383100      0.72504000      0.09736800
 1      3.49382800      1.68296200      1.25611800
 6      2.83508100     -3.64140800     -1.10934400
 1      1.42094300     -2.61350000      0.10457800
 6      4.94774400     -2.57747000     -1.56602300
 6      5.42302900     -0.35825700     -0.64023500
 1      5.71554500      1.57673800      0.24225800
 6      4.10997400     -3.64911900     -1.71973900
 1      2.17839100     -4.51623300     -1.23190200
 1      5.94872500     -2.57467900     -2.02916600
 1      6.42118400     -0.39663600     -1.10737400
 1      4.41955000     -4.52326700     -2.31181900
 6     -4.83949200     -0.34683400     -0.12919800
 6     -5.94653700     -0.28214800     -0.98760300
 6     -4.72407100     -1.38124800      0.80455900
 6     -6.92968000     -1.26125200     -0.90737400
 1     -6.06016300      0.53433300     -1.72191800
 6     -5.71898200     -2.35293900      0.86754000
 1     -3.84675900     -1.45469000      1.47348200
 6     -6.81793000     -2.29686200      0.01663500
 1     -7.79937500     -1.21548000     -1.58032500
 1     -5.63068200     -3.17052500      1.59912600
 1     -7.59870600     -3.07016700      0.07290700


