%nprocshared=8
%mem=3GB
#p b3lyp cc-pVTZ empiricaldispersion=gd3bj scrf=(pcm,solvent=diethylether)

title

0 1
16     -2.52034700      1.20752500     -0.73055400
 8     -0.91303600     -3.01298600      1.48121200
 7      0.05138400     -2.33209400     -0.45296900
 7     -2.23520800     -0.53942200      1.29735900
 1     -2.63709800     -1.25096300      1.89837500
 7     -4.38486600     -0.12992300      0.70071700
 1     -4.58387900     -0.92383500      1.29885700
 6      0.41638900     -1.31917600     -1.48436500
 1     -0.46624100     -0.69918600     -1.67188900
 6      0.69011600     -2.17707900     -2.74138500
 1      1.75285500     -2.42667800     -2.80700100
 1      0.42355400     -1.62475700     -3.64580300
 6     -0.15097500     -3.44047600     -2.52558000
 1      0.19610800     -4.29142800     -3.11787600
 1     -1.19761600     -3.24732800     -2.78613600
 6     -0.03367200     -3.68972700     -1.01976400
 1      0.86292500     -4.27226800     -0.77152900
 1     -0.88956400     -4.20538800     -0.58245000
 6     -0.51803000     -2.09140600      0.75519700
 6     -0.78211600     -0.63673900      1.17955700
 1     -0.49077900      0.06123100      0.40179800
 6     -3.06461500      0.13953800      0.46810700
 6     -0.07869100     -0.19986000      2.50335700
 6     -0.28165500      1.31827100      2.64824100
 1     -1.34598900      1.57402600      2.67921300
 1      0.18191900      1.67488300      3.57508900
 1      0.17254600      1.85802500      1.80966100
 6     -0.66016500     -0.91328500      3.73618200
 1     -0.56555400     -1.99798300      3.65155400
 1     -0.12494000     -0.58251900      4.63338500
 1     -1.71839900     -0.66699400      3.88176900
 6      1.42461600     -0.49998000      2.40717200
 1      1.89062000      0.05595700      1.59156200
 1      1.91985600     -0.20441100      3.33874300
 1      1.61879900     -1.56608900      2.24854400
 6      3.00994200      4.26427400     -0.71985200
 6      2.02810000      3.32429400     -1.02758900
 6      2.30080600      1.95095500     -0.92929700
 6      3.59029800      1.52127000     -0.50513000
 6      4.27726000      3.85465400     -0.30868300
 6      1.31449400      0.95757500     -1.22912400
 6      3.86581100      0.12700400     -0.38440300
 6      2.85724200     -0.84705600     -0.68106200
 6      1.55117900     -0.38292400     -1.11469600
 6      3.17757700     -2.20315100     -0.50280600
 1      2.43283300     -2.96193500     -0.68864100
 6      4.44090700     -2.60050000     -0.06804900
 6      5.42612700     -1.65950700      0.20877300
 1      0.32726600      1.29885300     -1.52842500
 1      2.78567500      5.32392100     -0.79946800
 1      1.03952700      3.64494300     -1.34425100
 1      5.03835300      4.59255400     -0.06942600
 1      4.65136800     -3.65844100      0.05861700
 1      6.40887500     -1.97436200      0.54906300
 6      4.59006600      2.49096900     -0.19167300
 6      5.15825200     -0.29078500      0.06170400
 6      5.88117900      2.03430700      0.23901600
 1      6.64094100      2.77540200      0.47256200
 6      6.14976900      0.70591900      0.35922400
 1      7.12836400      0.36943500      0.69137700
 6     -5.53287000      0.44693000      0.09983700
 6     -6.57942800     -0.40766300     -0.26297800
 6     -5.67171200      1.82968700     -0.06162900
 6     -7.75723200      0.11633200     -0.79439000
 1     -6.46432800     -1.48070700     -0.13447700
 6     -6.84581100      2.34243000     -0.60980600
 1     -4.86776800      2.48808500      0.23980800
 6     -7.89207900      1.49306300     -0.97753600
 1     -8.56392600     -0.55549100     -1.07248600
 1     -6.94645100      3.41633000     -0.73730600
 1     -8.80564900      1.90173300     -1.39882500


