%nprocshared=8
%mem=20GB
#p b3lyp 6-31g* empiricaldispersion=gd3bj opt freq=noraman scrf=(pcm,solvent=diethylether)

title

0 1
16      0.70552400      1.32358800      1.94538400
 8     -1.40625100      0.02208200     -1.64928500
 7     -2.19544400     -0.69101800      0.37517200
 7     -0.26971900      2.12346400     -0.44319300
 1     -0.19577000      1.83397500     -1.43281000
 7      1.97183100      1.72270400     -0.43646700
 1      1.85103700      2.03846300     -1.40630600
 6     -0.41726900     -3.67570000     -1.08238300
 1     -1.22960200     -4.24742900     -1.52304500
 6      0.89788500     -4.08561600     -1.30609200
 1      1.09018700     -4.96696000     -1.91458000
 6      1.96087400     -3.36606600     -0.75979200
 6      1.69369400     -2.24113800      0.02089100
 1      2.50847500     -1.66263500      0.45119300
 6      0.37840700     -1.83794900      0.24742300
 1      0.21206300     -0.95126900      0.85072700
 6     -0.69538800     -2.54187900     -0.31135100
 6     -2.14499400     -2.12243900     -0.04516300
 6     -2.68702200     -2.84337100      1.22700400
 1     -2.31595800     -3.87178900      1.28506500
 1     -3.78583700     -2.86200600      1.18914400
 6     -2.21320800     -1.95200400      2.39171200
 1     -1.15311300     -2.13848200      2.60399800
 1     -2.78893400     -2.11148100      3.30982600
 6     -2.39239400     -0.51927300      1.83890000
 1     -1.63741900      0.16230000      2.24159300
 1     -3.39959100     -0.13332100      2.04625700
 6     -1.75569800      0.26606100     -0.47592900
 6     -1.60816200      1.71743800      0.02394000
 1     -1.59801400      1.78561100      1.10939000
 6      0.82808200      1.72371300      0.30480600
 6     -2.70967600      2.66541300     -0.52450200
 6     -2.48473300      4.05802400      0.09864800
 1     -1.47694300      4.41873000     -0.14698600
 1     -3.22498300      4.77272500     -0.28963800
 1     -2.58274800      4.01337800      1.19371200
 6     -2.66287000      2.77218500     -2.06268000
 1     -2.71690300      1.77896800     -2.52179800
 1     -3.50444100      3.38607100     -2.41502000
 1     -1.73104300      3.25759600     -2.38779100
 6     -4.08097600      2.10925500     -0.08329500
 1     -4.13245100      2.02689900      1.01270000
 1     -4.88279400      2.78315800     -0.41662500
 1     -4.26180100      1.11474800     -0.51564900
 1      2.98700100     -3.67804200     -0.94151700
 6      3.27536500      1.24140600     -0.17399200
 6      4.16234300      1.23339700     -1.26383700
 6      3.71407500      0.77221200      1.07208900
 6      5.45945100      0.75788100     -1.11250800
 1      3.82442700      1.59412600     -2.23383600
 6      5.01702600      0.29432000      1.20893600
 1      3.01737700      0.79666700      1.89673900
 6      5.89590500      0.28103000      0.12625100
 1      6.13092200      0.75639200     -1.96768800
 1      5.34318500     -0.06839900      2.18093700
 1      6.90962200     -0.09308300      0.24372400
 6     -3.08005800     -2.36235500     -1.24617100
 1     -2.67012500     -1.87828700     -2.13590800
 1     -3.21253700     -3.43644700     -1.42745500
 1     -4.06229700     -1.92754500     -1.01623800


