%nprocshared=8
%mem=6GB
#p b3lyp midix empiricaldispersion=gd3bj opt freq=noraman scrf=(pcm,solvent=diethylether)

title

0 1
16     -2.24087200      2.06584800      1.12599000
 8     -1.61028900     -1.81931300     -1.46818000
 7     -1.60002600     -1.80752400      0.78685500
 7     -2.71229700      0.83947600     -1.18725400
 1     -2.48924900      0.65914100     -2.14438700
 7     -1.17055800      2.59448600     -1.26244300
 1     -1.30194500      2.65549600     -2.24788300
 6     -0.52394000     -2.83729300      0.87762300
 1     -0.81078000     -3.70285700      0.19985400
 6     -0.51985300     -3.33506100      2.33309700
 1      0.40837900     -3.04908100      2.87697200
 1     -0.52104000     -4.44463900      2.37075800
 6     -1.75620000     -2.74842900      3.01589500
 1     -1.48538200     -2.24543500      3.96861900
 1     -2.47467400     -3.54184100      3.30884500
 6     -2.39198800     -1.75403700      2.04301100
 1     -2.36880500     -0.70651800      2.43564000
 1     -3.47111400     -1.98442500      1.86475200
 6     -2.14758600     -1.40617000     -0.44245000
 6     -3.26357700     -0.33699700     -0.46419800
 1     -3.55349300     -0.00821700      0.59368000
 6     -2.01770200      1.82361900     -0.46823200
 6     -4.57879100     -0.83446000     -1.11471300
 6     -5.60791100      0.29934400     -1.08142200
 1     -5.34427700      1.13397900     -1.74277400
 1     -6.59275100     -0.05798500     -1.41338300
 1     -5.73931300      0.70721100     -0.07009600
 6     -4.44378000     -1.31194000     -2.55461900
 1     -3.78761100     -2.18460100     -2.65608600
 1     -5.42360600     -1.61913000     -2.94872700
 1     -4.07039000     -0.53642600     -3.23487000
 6     -5.12975200     -1.98235500     -0.26655600
 1     -5.37948900     -1.65231200      0.75227100
 1     -6.05594400     -2.38295600     -0.70108900
 1     -4.42886400     -2.82271900     -0.18064600
 6      4.61252100     -2.79529800     -2.55060500
 6      3.38844600     -3.24313800     -2.06475100
 6      2.74689600     -2.54084700     -1.03905500
 6      3.34396900     -1.38778000     -0.49987300
 6      5.20973300     -1.65019200     -2.03181600
 6      1.46969900     -2.96667700     -0.53879200
 6      2.69275500     -0.68495400      0.55946100
 6      1.45535300     -1.14207700      1.07715000
 6      0.83108000     -2.29936000      0.46347500
 6      0.90378400     -0.44624700      2.15942600
 1     -0.03299600     -0.77054000      2.64504900
 6      1.51739700      0.69406900      2.66887900
 6      2.70469600      1.17156200      2.12948000
 1      1.02265500     -3.85510400     -1.02557600
 1      5.11338300     -3.35158300     -3.35751700
 1      2.92122900     -4.14740500     -2.48921400
 1      6.17787600     -1.30172300     -2.42823800
 1      1.04602800      1.23160600      3.50647500
 1      3.16283400      2.09760100      2.51901500
 6      4.58068000     -0.93920200     -1.00608900
 6      3.31001200      0.47035500      1.08357600
 6      5.17788700      0.25017600     -0.45835700
 1      6.14042000      0.59421400     -0.87216800
 6      4.56464900      0.92636100      0.54129600
 1      5.01488500      1.84068700      0.96325500
 6     -0.31657400      3.61256400     -0.71319900
 6     -0.32741100      4.89024900     -1.28653600
 6      0.57111700      3.30246700      0.32195700
 6      0.55451200      5.85479900     -0.81059200
 1     -1.01143500      5.14379100     -2.11442800
 6      1.45059600      4.27914800      0.77803300
 1      0.58739100      2.30134400      0.79838100
 6      1.44240600      5.55320000      0.21878700
 1      0.54903800      6.86195600     -1.25412300
 1      2.15865200      4.02034200      1.58382800
 1      2.13809400      6.32160500      0.58755200


