%nprocshared=8
%mem=3GB
#p b3lyp cc-pVTZ empiricaldispersion=gd3bj scrf=(pcm,solvent=diethylether)

title

0 1
16     -2.18697000      1.32613200     -0.19965600
 8     -0.10908800     -3.34107500      1.13992100
 7      0.95990400     -2.40500600     -0.61526100
 7     -1.76432800     -1.06965000      0.94517400
 1     -2.12044200     -1.94335500      1.31800300
 7     -3.93816900     -0.62038700      0.49591100
 1     -4.05875800     -1.60683500      0.69592600
 6      1.19432500     -1.36524900     -1.67591700
 6      2.09814000     -2.12711000     -2.68718300
 1      3.15309400     -1.99828500     -2.44206100
 1      1.94838600     -1.72889200     -3.69371700
 6      1.68372100     -3.59767200     -2.55564100
 1      2.47757700     -4.28397700     -2.86154900
 1      0.80898400     -3.80839300     -3.17850800
 6      1.32933100     -3.75993000     -1.07414200
 1      2.17712400     -4.12729500     -0.48246400
 1      0.49758000     -4.44389600     -0.89726800
 6      0.20488200     -2.31986900      0.51079900
 6     -0.30817700     -0.96261500      1.02146600
 1     -0.01108800     -0.14556400      0.37152400
 6     -2.64339100     -0.17079200      0.44408400
 6      0.17521400     -0.63402200      2.48068200
 6     -0.08635400      0.85921100      2.74097600
 1     -1.14666600      1.10648000      2.63737400
 1      0.22890500      1.11954300      3.75843500
 1      0.47182000      1.48649100      2.03769000
 6     -0.57583400     -1.46713400      3.53397000
 1     -0.43915900     -2.53708800      3.36392500
 1     -0.19568400     -1.21839900      4.53122500
 1     -1.64878400     -1.24484000      3.52853600
 6      1.68251500     -0.90019400      2.61154000
 1      2.26214100     -0.27665000      1.92890100
 1      2.00602100     -0.66693000      3.63234600
 1      1.93085000     -1.94783000      2.41432800
 6      1.79200600      4.77357000     -0.82928700
 6      1.23867500      3.57300300     -1.22640800
 6      1.90431600      2.35185000     -0.97353300
 6      3.15106700      2.34819200     -0.29570700
 6      3.03467100      4.77879900     -0.16759200
 6      1.32165800      1.11635400     -1.39322400
 6      3.78466100      1.06677600     -0.02428200
 6      3.15468500     -0.15226700     -0.43554800
 6      1.88705000     -0.10241200     -1.15229900
 6      3.78966200     -1.37137200     -0.08900600
 1      3.31498200     -2.30802200     -0.33171300
 6      4.98710900     -1.40675700      0.59738100
 6      5.61189500     -0.20941300      0.97809800
 1      0.36770300      1.18749000     -1.89719000
 1      1.27383400      5.70792000     -1.02338300
 1      0.27869700      3.54569900     -1.73468600
 1      3.47673500      5.72020300      0.14559200
 1      5.43525300     -2.36355300      0.84861000
 1      6.55381700     -0.22786500      1.51819600
 6      3.69764200      3.59296200      0.09327600
 6      5.01303900      0.99656600      0.67319600
 6     -5.12819000      0.03169900      0.08791900
 6     -6.08356800     -0.72698200     -0.59827600
 6     -5.40137900      1.36507900      0.41397800
 6     -7.30018600     -0.15466500     -0.96675300
 1     -5.86714200     -1.76254900     -0.84791400
 6     -6.61351200      1.93288400      0.02601900
 1     -4.67041500      1.94373000      0.96245900
 6     -7.56737300      1.18096100     -0.66370200
 1     -8.03345700     -0.75365500     -1.49881100
 1     -6.81666300      2.96969200      0.27807600
 1     -8.51112200      1.63065300     -0.95733200
 1      4.64955200      3.63549200      0.60954500
 1      5.50143400      1.91109300      0.98741100
 6     -0.15431800     -1.08891800     -2.36747600
 1     -0.58799700     -2.03963100     -2.68909900
 1     -0.86972000     -0.59487200     -1.70815700
 1     -0.01889900     -0.46349500     -3.25433800


