%nprocshared=8
%mem=6GB
#p pddg opt freq=noraman scrf=(pcm,solvent=diethylether)

title

0 1
16      2.35275900     -0.15802200      1.40023700
 8     -0.27889400      0.97825700     -1.49111800
 7     -1.02529900      1.20652800      0.63432200
 7      2.34969600      1.48684200     -0.68099000
 1      2.45980600      1.64401300     -1.66081600
 7      3.74617600     -0.36919900     -0.88213500
 1      4.13621300      0.07366600     -1.68632500
 6     -2.46006200      0.82192200      0.39578700
 6     -3.14955500      1.12584000      1.75125100
 1     -3.92299800      0.37554000      2.02401100
 1     -3.70972300      2.08727900      1.71088400
 6     -2.04880400      1.17588500      2.80437600
 1     -1.92820400      0.19402700      3.30880700
 1     -2.28591200      1.89009000      3.61830800
 6     -0.78272600      1.57207500      2.05370700
 1      0.12584300      1.03597900      2.43238300
 1     -0.57002700      2.66328700      2.16029200
 6     -0.08339000      1.44891200     -0.36921800
 6      1.21798000      2.22147600     -0.06033900
 1      1.43988500      2.27978300      1.05663800
 6      2.82913100      0.31646300     -0.08423400
 6      1.14726000      3.68435300     -0.57746200
 6      2.51332200      4.34784100     -0.39695400
 1      3.27968500      3.93659700     -1.06696800
 1      2.45783300      5.42265900     -0.62009100
 1      2.88228400      4.25319100      0.63292300
 6      0.73298100      3.81607600     -2.03823300
 1     -0.28334100      3.44193600     -2.22183500
 1      0.73353200      4.87237600     -2.34371200
 1      1.40459900      3.29553700     -2.73185000
 6      0.13746800      4.45490000      0.27511100
 1      0.43017800      4.47941600      1.33441600
 1      0.06253300      5.50056400     -0.05408500
 1     -0.87524600      4.02934100      0.21467400
 6     -2.63462900     -0.65243000      0.05906000
 6     -3.92726000     -1.21310400     -0.21842500
 6     -1.54199500     -1.49105200      0.06280400
 6     -5.13952600     -0.46696300     -0.18276500
 6     -4.02682800     -2.58641100     -0.52464800
 6     -1.65605400     -2.86559400     -0.24623000
 1     -0.51648100     -1.15064500      0.29869600
 6     -6.34832500     -1.05403300     -0.44655800
 1     -5.12630200      0.61714100      0.04998700
 6     -5.28761200     -3.18032600     -0.80573300
 6     -2.87143300     -3.41090100     -0.54661500
 1     -0.74841000     -3.48833800     -0.24321900
 6     -6.42925100     -2.42742500     -0.76666100
 1     -7.27190100     -0.45673500     -0.41242900
 1     -5.33425500     -4.25455200     -1.05219100
 1     -2.96718100     -4.48048900     -0.79703900
 1     -7.40966400     -2.87793500     -0.98067900
 6      4.53196800     -1.47645800     -0.40909700
 6      5.90450200     -1.48536200     -0.69978200
 6      3.94169300     -2.55608100      0.25553300
 6      6.67728700     -2.57395700     -0.31414100
 1      6.38619900     -0.65074200     -1.23838900
 6      4.73423900     -3.63576400      0.63536400
 1      2.86441800     -2.55678800      0.50875900
 6      6.09636600     -3.64807000      0.35493200
 1      7.75445600     -2.58356400     -0.53956200
 1      4.27315000     -4.48488000      1.16248800
 1      6.71461900     -4.50538900      0.66050300
 6     -3.03536000      1.72394900     -0.70863500
 1     -2.81782700      1.35786200     -1.72012600
 1     -4.13420200      1.80080500     -0.63596100
 1     -2.65889100      2.75750300     -0.65488400


