%nprocshared=8
%mem=6GB
#p b3lyp midix empiricaldispersion=gd3bj opt freq=noraman scrf=(pcm,solvent=diethylether)

title

0 1
16     -1.73261900      0.79564600      0.72648200
 8      0.57221600     -3.45249600     -1.29033100
 7      1.97144000     -1.69589200     -1.19129100
 7     -1.44434200     -1.65396600     -0.27169300
 1     -1.83992500     -2.52026700     -0.57693200
 7     -3.58471800     -0.74733900     -0.43811100
 1     -3.78583600     -1.45217800     -1.11469800
 6      2.12828900     -0.20191900     -1.35514500
 6      3.23591800     -0.04186000     -2.43102300
 1      3.95853600      0.76660400     -2.18507700
 1      2.81074600      0.27150100     -3.41141200
 6      3.92736000     -1.39363900     -2.54750900
 1      4.81438400     -1.45567400     -1.88278400
 1      4.31827300     -1.57688000     -3.56837000
 6      2.85982600     -2.40945400     -2.15898800
 1      3.28503900     -3.31891700     -1.67978100
 1      2.31036100     -2.77315100     -3.05990400
 6      0.80006800     -2.36569200     -0.76256900
 6     -0.10077500     -1.79807400      0.35564100
 1      0.29767800     -0.77901500      0.69770300
 6     -2.26654800     -0.55762000     -0.00005100
 6     -0.15634900     -2.70312700      1.62325200
 6     -0.94057700     -1.96869100      2.71661400
 1     -1.99919100     -1.82806200      2.46258900
 1     -0.91800000     -2.53089500      3.66035200
 1     -0.52366100     -0.97215600      2.92219200
 6     -0.82007900     -4.06122000      1.41296500
 1     -0.31169800     -4.68331200      0.66796900
 1     -0.80976800     -4.64025400      2.34870500
 1     -1.87647000     -3.99234400      1.12316300
 6      1.25504600     -2.93001600      2.16122100
 1      1.70684000     -1.99466500      2.52920800
 1      1.24417900     -3.61832600      3.01838900
 1      1.93506500     -3.36620800      1.41819300
 6      2.59114900      0.47399500     -0.07377400
 6      2.67827400      1.90112800      0.05007400
 6      2.99261600     -0.29828100      0.99097100
 6      2.50058700      2.80017400     -1.03821600
 6      3.00932600      2.45747200      1.30318800
 6      3.31273500      0.26745700      2.24601000
 1      3.08495600     -1.39775100      0.92333000
 6      2.59962200      4.15531500     -0.86470300
 1      2.27292300      2.41210300     -2.05213500
 6      3.08646700      3.86647300      1.47259600
 6      3.29464000      1.62236700      2.41653400
 1      3.55082200     -0.41007100      3.08107100
 6      2.88144000      4.70095400      0.40738200
 1      2.45849000      4.83354300     -1.71974300
 1      3.31858100      4.27749600      2.46959300
 1      3.51516200      2.07531900      3.39747100
 1      2.93894600      5.79287500      0.52826000
 6     -4.56916900      0.30104100     -0.41430800
 6     -5.32403800      0.53668200     -1.57241400
 6     -4.82904400      1.01531900      0.75974300
 6     -6.33378600      1.49149300     -1.54615700
 1     -5.14123600     -0.02549900     -2.50470700
 6     -5.84287400      1.96916500      0.76415200
 1     -4.22665100      0.85669500      1.67347600
 6     -6.59400200      2.20912200     -0.38179100
 1     -6.92793800      1.68006500     -2.45316700
 1     -6.04759500      2.53616400      1.68506100
 1     -7.39265700      2.96590200     -0.36897600
 6      0.81472400      0.40616700     -1.86402300
 1      0.29194100     -0.23718500     -2.58467000
 1      0.10240000      0.64932300     -1.05612300
 1      0.98772500      1.35685800     -2.39969800


