%nprocshared=8
%mem=20GB
#p b3lyp 6-31g* empiricaldispersion=gd3bj opt freq=noraman scrf=(pcm,solvent=diethylether)

title

0 1
16     -2.05076900      1.28741600     -0.35047900
 8     -0.17541700     -3.32991500      1.05666300
 7      0.98233100     -2.38499700     -0.65300900
 7     -1.76137600     -1.04464400      0.91700600
 1     -2.10643900     -1.96160600      1.22397700
 7     -3.92630800     -0.52700000      0.48987600
 1     -4.07105500     -1.43035000      0.95468900
 6      1.20534000     -1.33184800     -1.70047300
 6      2.10986800     -2.08400400     -2.73354100
 1      3.16681100     -1.97695600     -2.47422900
 1      1.96271400     -1.66305200     -3.73377600
 6      1.66376400     -3.56149800     -2.63186000
 1      2.45340000     -4.25212400     -2.94791000
 1      0.78396600     -3.74000200     -3.26200600
 6      1.30226300     -3.75098100     -1.14158400
 1      2.14186900     -4.16127200     -0.56203800
 1      0.44014400     -4.40406000     -0.97571000
 6      0.19134500     -2.30162600      0.45284000
 6     -0.30054500     -0.93675700      0.96247100
 1     -0.01527000     -0.11093700      0.31529700
 6     -2.61666500     -0.13877000      0.37614500
 6      0.18647000     -0.62504500      2.42321600
 6     -0.04624200      0.87875900      2.68310000
 1     -1.09655600      1.14987000      2.51421000
 1      0.22288300      1.12462100      3.72143300
 1      0.57196500      1.48548000      2.00551100
 6     -0.59841100     -1.46040900      3.45604800
 1     -0.50845700     -2.52575900      3.21541400
 1     -0.19263400     -1.27457300      4.46097800
 1     -1.66066300     -1.17898900      3.45768100
 6      1.68969000     -0.93315700      2.56209900
 1      2.28421000     -0.33655300      1.86412200
 1      2.01491300     -0.69497800      3.58555100
 1      1.89153300     -1.99686800      2.37596700
 6      1.79814800      4.76451300     -0.62727800
 6      1.24834600      3.58343300     -1.08092100
 6      1.91454800      2.35359900     -0.88273800
 6      3.15425900      2.32053800     -0.19627000
 6      3.03851200      4.74189000      0.03866100
 6      1.33718900      1.13883300     -1.35882500
 6      3.78380100      1.03239900      0.03213000
 6      3.15268500     -0.16654300     -0.42467200
 6      1.89790200     -0.08566000     -1.14994100
 6      3.76813900     -1.40325000     -0.11003800
 1      3.27038000     -2.32257700     -0.37571300
 6      4.95841000     -1.46932800      0.58423900
 6      5.59120200     -0.28914200      1.00507200
 1      0.38375200      1.22727300     -1.86400600
 1      1.27866400      5.70756000     -0.77821500
 1      0.28524900      3.57529400     -1.58782100
 1      3.47751500      5.67048200      0.39575300
 1      5.39644500     -2.43728300      0.81547300
 1      6.52962900     -0.33490700      1.55215700
 6      3.69888600      3.54591000      0.25013900
 6      5.00632800      0.93106200      0.73476600
 6     -5.13701700      0.08538300      0.09411600
 6     -6.30218400     -0.68558700      0.25017200
 6     -5.24142000      1.38887500     -0.40989400
 6     -7.54430700     -0.16463200     -0.09405700
 1     -6.22677100     -1.69892500      0.64175700
 6     -6.49236100      1.89774900     -0.75418400
 1     -4.33205400      1.96107600     -0.52350400
 6     -7.64875000      1.13270900     -0.60184600
 1     -8.43417100     -0.77660700      0.03336500
 1     -6.55712200      2.91097900     -1.14457800
 1     -8.61951600      1.53969500     -0.87313100
 1      4.64834900      3.56017200      0.77545900
 1      5.49732400      1.83389200      1.08225000
 6     -0.14954400     -1.04003000     -2.38993300
 1     -0.60810700     -1.99483100     -2.67507600
 1     -0.84117700     -0.49521900     -1.73888600
 1      0.00348900     -0.44512500     -3.30015300


