%nprocshared=8
%mem=6GB
#p pddg opt freq=noraman scrf=(pcm,solvent=diethylether)

title

0 1
16     -2.29062000      1.80038000      1.12130100
 8     -1.10730000     -1.96168500     -1.45847900
 7     -1.10085800     -1.93836500      0.79657900
 7     -2.58391800      0.51104600     -1.18752100
 1     -2.34408600      0.36544600     -2.14640700
 7     -1.30993200      2.46821300     -1.27057700
 1     -1.46500200      2.51878200     -2.25298300
 6      0.11210500     -2.80217400      0.89216500
 1     -0.04883000     -3.70321500      0.21880300
 6      0.18585100     -3.29006000      2.34910100
 1      1.06392100     -2.87399700      2.89221500
 1      0.34201100     -4.38851000      2.39013700
 6     -1.12202500     -2.88324100      3.02963700
 1     -0.92611200     -2.34027900      3.97878700
 1     -1.71861200     -3.76992500      3.32859400
 6     -1.89488600     -1.99698300      2.05135300
 1     -2.02675600     -0.95590400      2.43965700
 1     -2.92803600     -2.38422400      1.87207400
 6     -1.69974100     -1.62623400     -0.43481100
 6     -2.95947600     -0.73084600     -0.46162200
 1     -3.29553100     -0.44409800      0.59489700
 6     -2.03901000      1.58670100     -0.47232800
 6     -4.18752300     -1.41608100     -1.11201100
 6     -5.37102400     -0.44435800     -1.08217700
 1     -5.23034600      0.41978200     -1.74325300
 1     -6.29234300     -0.94166600     -1.41633000
 1     -5.56348100     -0.05984900     -0.07144400
 6     -3.98347100     -1.87216600     -2.55083700
 1     -3.20604300     -2.63906600     -2.65050100
 1     -4.90747700     -2.32130900     -2.94362600
 1     -3.72886000     -1.05199600     -3.23361800
 6     -4.56605800     -2.62981200     -0.26107400
 1     -4.86165200     -2.33684700      0.75683600
 1     -5.42386100     -3.16202700     -0.69469400
 1     -3.75027600     -3.35889300     -0.17278100
 6      5.17909500     -2.12365500     -2.54584400
 6      4.03047400     -2.70258200     -2.05464700
 6      3.30502000     -2.06339800     -1.02466900
 6      3.75255400     -0.84576100     -0.50162300
 6      5.62985700     -0.89668900     -2.02683800
 6      2.10002400     -2.65704600     -0.52936700
 6      2.99862200     -0.22425900      0.56066900
 6      1.84290100     -0.84800700      1.07225200
 6      1.37734200     -2.07956800      0.47397900
 6      1.18291600     -0.23014200      2.15916800
 1      0.30194400     -0.69008500      2.63870200
 6      1.61592000      0.97618000      2.66426000
 6      2.73470500      1.61857600      2.11201500
 1      1.77569400     -3.59918800     -1.01294900
 1      5.74960600     -2.61546900     -3.34794500
 1      3.66982000     -3.66200200     -2.46203100
 1      6.54751600     -0.44246700     -2.42987200
 1      1.07763400      1.44783000      3.50077900
 1      3.04854100      2.60185000      2.49734200
 6      4.93045100     -0.26553100     -1.02254000
 6      3.42572300      1.01545100      1.08649100
 6     -0.61953800      3.60324800     -0.71948300
 6     -0.84998500      4.87259300     -1.26373100
 6      0.33141900      3.42065700      0.28952900
 6     -0.12361100      5.95784600     -0.78460000
 1     -1.58671200      5.02799700     -2.07030000
 6      1.05078300      4.51830600      0.75121300
 1      0.52097600      2.42663600      0.74234700
 6      0.82474800      5.78443500      0.22006500
 1     -0.30156500      6.95899300     -1.20549700
 1      1.80716600      4.36322700      1.53955900
 1      1.39552000      6.64816400      0.59241400
 1      5.28650400      0.70293000     -0.61704800
 1      4.32502300      1.50812600      0.66362100


