%nprocshared=8
%mem=6GB
#p b3lyp midix empiricaldispersion=gd3bj opt freq=noraman scrf=(pcm,solvent=diethylether)

title

0 1
16     -1.87427000      0.90939400     -0.51678500
 8      0.28378500     -3.45444500      1.03632200
 7      1.66784300     -2.38471500     -0.36933500
 7     -1.52931400     -1.31093500      0.91128600
 1     -1.86854000     -2.00027400      1.55053200
 7     -3.73608000     -0.77064900      0.42840900
 1     -4.02557700     -1.36924800      1.17141900
 6      1.88432600     -1.42717000     -1.51109300
 6      2.88836000     -2.14529100     -2.45847000
 1      3.75766300     -1.50870300     -2.73225500
 1      2.42603400     -2.38906600     -3.44177300
 6      3.34433700     -3.41676000     -1.74903300
 1      4.34870300     -3.29002300     -1.28943000
 1      3.46181500     -4.26675000     -2.45139800
 6      2.28289800     -3.70632700     -0.69418300
 1      2.71404700     -4.16672500      0.22330600
 1      1.52729800     -4.43839300     -1.06622900
 6      0.60921800     -2.36609600      0.55957500
 6     -0.06690400     -1.05825700      1.00907200
 1      0.23255600     -0.19130200      0.32487900
 6     -2.39295600     -0.39360100      0.32076500
 6      0.35783500     -0.62449000      2.43983100
 6     -0.23992500      0.75594400      2.72726800
 1     -1.33656300      0.74314600      2.77076200
 1      0.10988600      1.14182600      3.69446200
 1      0.04214300      1.49488000      1.96313900
 6     -0.07934000     -1.57397300      3.54900700
 1      0.30713500     -2.59122200      3.41274500
 1      0.30098300     -1.22514800      4.52012900
 1     -1.16874200     -1.64318700      3.66289500
 6      1.87831900     -0.49351700      2.48570000
 1      2.25857900      0.16717200      1.68972300
 1      2.20828100     -0.06962300      3.44408100
 1      2.38498600     -1.46155700      2.38185100
 6      2.48292900      4.61750500     -0.14778700
 6      1.85643000      3.49990400     -0.63389300
 6      2.51183000      2.24055300     -0.57312200
 6      3.79400800      2.15473200     -0.01003300
 6      4.42643300      3.32429700      0.48758700
 6      3.77845600      4.52969300      0.41627900
 1      0.84766600      1.19117300     -1.48207900
 1      1.98350100      5.59710500     -0.19010000
 1      0.84397800      3.56057000     -1.06854200
 6      1.87225000      1.07236100     -1.07016400
 6      4.44064100      0.89254700      0.05118600
 1      5.43468200      3.24622500      0.92647400
 1      4.25830200      5.44323600      0.79824600
 6      3.81307000     -0.22282600     -0.43386300
 6      2.50751100     -0.14401800     -0.99723700
 1      5.44999900      0.82535200      0.48987200
 1      4.33282800     -1.19647000     -0.38933900
 6     -4.81212200      0.01320800     -0.11517900
 6     -5.91753600      0.28769700      0.70305000
 6     -4.79785800      0.42728400     -1.45092500
 6     -7.00073000      0.98129500      0.17635700
 1     -5.95258700     -0.04267500      1.75587300
 6     -5.89196000      1.12229800     -1.95841900
 1     -3.92374300      0.23822400     -2.10097300
 6     -6.99015700      1.40054000     -1.15128700
 1     -7.86959500      1.19999600      0.81550000
 1     -5.88290200      1.45280200     -3.00823500
 1     -7.84985100      1.95182900     -1.56082300
 6      0.59458400     -1.19281800     -2.30540700
 1      0.20082600     -2.12189800     -2.74229900
 1     -0.23690200     -0.74802500     -1.73271600
 1      0.78031800     -0.51220100     -3.14774400


