%mem=3GB
%nprocshared=4
#p counterpoise=2 mp2 6-31g* 

benzene dimer 1.90425

0 1
C(Fragment=1)      1.391500000000    -0.000000000000     1.90425
H(Fragment=1)      2.471500000000    -0.000000000000     1.90425
C(Fragment=1)      0.695750000000     1.205074349366     1.90425
H(Fragment=1)      1.235750000000     2.140381785453     1.90425
C(Fragment=1)      0.695750000000    -1.205074349366     1.90425
H(Fragment=1)      1.235750000000    -2.140381785453     1.90425
C(Fragment=1)     -0.695750000000     1.205074349366     1.90425
H(Fragment=1)     -1.235750000000     2.140381785453     1.90425
C(Fragment=1)     -0.695750000000    -1.205074349366     1.90425
H(Fragment=1)     -1.235750000000    -2.140381785453     1.90425
C(Fragment=1)     -1.391500000000    -0.000000000000     1.90425
H(Fragment=1)     -2.471500000000    -0.000000000000     1.90425
C(Fragment=2)      0.000000000000     0.000000000000    -1.104250000000
C(Fragment=2)     -0.000000000000    -1.205074349366    -1.800000000000
H(Fragment=2)     -0.000000000000    -2.140381785453    -1.260000000000
H(Fragment=2)      0.000000000000     0.000000000000    -0.024250000000
C(Fragment=2)     -0.000000000000    -1.205074349366    -3.191500000000
H(Fragment=2)     -0.000000000000    -2.140381785453    -3.731500000000
C(Fragment=2)     -0.000000000000     0.000000000000    -3.887250000000
H(Fragment=2)     -0.000000000000     0.000000000000    -4.967250000000
C(Fragment=2)     -0.000000000000     1.205074349366    -3.191500000000
H(Fragment=2)      0.000000000000     2.140381785453    -3.731500000000
C(Fragment=2)      0.000000000000     1.205074349366    -1.800000000000
H(Fragment=2)      0.000000000000     2.140381785453    -1.260000000000


