%mem=1GB
#p opt=modredundant am1

MeCl + Cl- frozen

-1 1
 C                  0.14333800    0.65469200   -0.23620000
 H                  0.03830800   -0.01714600   -1.11430700
 H                 -0.80355400    0.69290900    0.34294300
 H                  0.98449100    0.32564900    0.41006800
 Cl                -0.56266000   -2.56992200    0.92716700
 Cl                 0.49917300    2.27994700   -0.82254900

B 1 5 F

